#  HZ   S   MA   R     50.00 
! Rohde & Schwarz Vector Network Analyzer 
! Rohde-Schwarz,ZNB20-2Port,1311601062101564,3.50
! Created: UTC 4/2/2026, 6:06:57 AM
! freq[Hz]                mag:S22                 ang:S22
 7.247850000000000E9     4.659537641568560E-1   -7.224278563400402E1
 7.247875000000000E9     4.659680255405375E-1   -7.221655185777308E1
 7.247900000000000E9     4.659824609401068E-1   -7.218992914741349E1
 7.247925000000000E9     4.659935461210869E-1   -7.216346237876526E1
 7.247950000000000E9     4.660047295659356E-1   -7.213691086543896E1
 7.247975000000000E9     4.660143080233072E-1   -7.211033855283750E1
 7.248000000000000E9     4.660180210807222E-1   -7.208387981548267E1
 7.248025000000000E9     4.660260398576969E-1   -7.205724581761736E1
 7.248050000000000E9     4.660321096713084E-1   -7.203031199196249E1
 7.248075000000000E9     4.660410759441066E-1   -7.200309497871812E1
 7.248100000000000E9     4.660488651279918E-1   -7.197591470041910E1
 7.248125000000000E9     4.660558586475108E-1   -7.194871840375018E1
 7.248150000000000E9     4.660622559407224E-1   -7.192164379079800E1
 7.248175000000000E9     4.660691188207626E-1   -7.189454489935281E1
 7.248200000000000E9     4.660689556756009E-1   -7.186760607895400E1
 7.248225000000000E9     4.660747502312289E-1   -7.184034995927232E1
 7.248250000000000E9     4.660729041173622E-1   -7.181310952458696E1
 7.248275000000000E9     4.660677019259461E-1   -7.178584597143647E1
 7.248300000000000E9     4.660597966706796E-1   -7.175847218803004E1
 7.248325000000000E9     4.660555000089274E-1   -7.173086012786207E1
 7.248350000000000E9     4.660613025223830E-1   -7.170396034331989E1
 7.248375000000000E9     4.660651815999146E-1   -7.167717328417598E1
 7.248400000000000E9     4.660676716280095E-1   -7.165062830723974E1
 7.248425000000000E9     4.660721723236412E-1   -7.162392613234830E1
 7.248450000000000E9     4.660755833037716E-1   -7.159709800089236E1
 7.248475000000000E9     4.660752830215231E-1   -7.157033578611923E1
 7.248500000000000E9     4.660759333321291E-1   -7.154356403998089E1
 7.248525000000000E9     4.660751878058292E-1   -7.151683604749982E1
 7.248550000000000E9     4.660754463914435E-1   -7.148982165458283E1
 7.248575000000000E9     4.660731611112537E-1   -7.146294874691658E1
 7.248600000000000E9     4.660694610031492E-1   -7.143589804547999E1
 7.248625000000000E9     4.660708963571061E-1   -7.140836799589735E1
 7.248650000000000E9     4.660691944193426E-1   -7.138081492758776E1
 7.248675000000000E9     4.660698512297369E-1   -7.135341501494429E1
 7.248700000000000E9     4.660699385919873E-1   -7.132577070792865E1
 7.248725000000000E9     4.660671541992721E-1   -7.129798406296635E1
 7.248750000000000E9     4.660642060877213E-1   -7.127060750489041E1
 7.248775000000000E9     4.660622097864516E-1   -7.124305990786736E1
 7.248800000000000E9     4.660563341672630E-1   -7.121536552368309E1
 7.248825000000000E9     4.660486488729977E-1   -7.118790175407530E1
 7.248850000000000E9     4.660407958852647E-1   -7.116038962014304E1
 7.248875000000000E9     4.660356734892740E-1   -7.113262871571339E1
 7.248900000000000E9     4.660327734089758E-1   -7.110612226065666E1
 7.248925000000000E9     4.660296295872617E-1   -7.107945779230053E1
 7.248950000000000E9     4.660231142848487E-1   -7.105289264098629E1
 7.248975000000000E9     4.660178627897001E-1   -7.102595394787286E1
 7.249000000000000E9     4.660097624223092E-1   -7.099927228499701E1
 7.249025000000000E9     4.659998819744304E-1   -7.097276484834136E1
 7.249050000000000E9     4.659918369772381E-1   -7.094594164863321E1
 7.249075000000000E9     4.659838120368145E-1   -7.091921957180620E1
 7.249100000000000E9     4.659749547166530E-1   -7.089260296821293E1
 7.249125000000000E9     4.659649702104744E-1   -7.086566902583785E1
 7.249150000000000E9     4.659537493971534E-1   -7.083896760488219E1
 7.249175000000000E9     4.659469797109391E-1   -7.081136310641671E1
 7.249200000000000E9     4.659376231005218E-1   -7.078410470626422E1
 7.249225000000000E9     4.659301659515746E-1   -7.075653731159159E1
 7.249250000000000E9     4.659177032223076E-1   -7.072907891551070E1
 7.249275000000000E9     4.659084901922187E-1   -7.070145835948449E1
 7.249300000000000E9     4.658973620951364E-1   -7.067399477696651E1
 7.249325000000000E9     4.658846334237332E-1   -7.064629889793315E1
 7.249350000000000E9     4.658707771897477E-1   -7.061873237588215E1
 7.249375000000000E9     4.658561634093694E-1   -7.059103944000351E1
 7.249400000000000E9     4.658399757472537E-1   -7.056351705993681E1
 7.249425000000000E9     4.658253043266165E-1   -7.053601143718960E1
 7.249450000000000E9     4.658169547431000E-1   -7.050902918077337E1
 7.249475000000000E9     4.658071471079320E-1   -7.048231788097809E1
 7.249500000000000E9     4.657976737868597E-1   -7.045527272029891E1
 7.249525000000000E9     4.657833746905504E-1   -7.042842073929221E1
 7.249550000000000E9     4.657683164252701E-1   -7.040125597674253E1
 7.249575000000000E9     4.657558279314641E-1   -7.037422238336674E1
 7.249600000000000E9     4.657438323411790E-1   -7.034737617573313E1
 7.249625000000000E9     4.657236615266861E-1   -7.032080681142409E1
 7.249650000000000E9     4.657071953999948E-1   -7.029385466120634E1
 7.249675000000000E9     4.656884764872312E-1   -7.026663758786951E1
 7.249700000000000E9     4.656711258231873E-1   -7.023981400526469E1
 7.249725000000000E9     4.656572807293809E-1   -7.021188139668823E1
 7.249750000000000E9     4.656443005521420E-1   -7.018419869369528E1
 7.249775000000000E9     4.656323882299808E-1   -7.015596821542285E1
 7.249800000000000E9     4.656218510352792E-1   -7.012795810891106E1
 7.249825000000000E9     4.656074184430348E-1   -7.009970910010482E1
 7.249850000000000E9     4.655874649831593E-1   -7.007182257678194E1
 7.249875000000000E9     4.655700798295031E-1   -7.004364443700892E1
 7.249900000000000E9     4.655517254794661E-1   -7.001583278604203E1
 7.249925000000000E9     4.655313358586504E-1   -6.998772718291903E1
 7.249950000000000E9     4.655069813448172E-1   -6.995957561545669E1
 7.249975000000000E9     4.654855393334406E-1   -6.993168804319033E1
 7.250000000000000E9     4.654686264252199E-1   -6.990472053793033E1
 7.250025000000000E9     4.654547260633898E-1   -6.987773428113402E1
 7.250050000000000E9     4.654379631821132E-1   -6.985043217937314E1
 7.250075000000000E9     4.654214690622308E-1   -6.982302403569986E1
 7.250100000000000E9     4.654026626040452E-1   -6.979584634117016E1
 7.250125000000000E9     4.653813656280932E-1   -6.976857082490810E1
 7.250150000000000E9     4.653586951471856E-1   -6.974137864671820E1
 7.250175000000000E9     4.653393857896068E-1   -6.971416710357808E1
 7.250200000000000E9     4.653182631972199E-1   -6.968699116158608E1
 7.250225000000000E9     4.652951336275738E-1   -6.965979558282778E1
 7.250250000000000E9     4.652697637914976E-1   -6.963260532822854E1
 7.250275000000000E9     4.652456572189386E-1   -6.960440251805704E1
 7.250300000000000E9     4.652193411134309E-1   -6.957666980762157E1
 7.250325000000000E9     4.651905495990472E-1   -6.954880824306514E1
 7.250350000000000E9     4.651621238837373E-1   -6.952086246306736E1
 7.250375000000000E9     4.651348023888928E-1   -6.949283024348951E1
 7.250400000000000E9     4.651061741608971E-1   -6.946481711111313E1
 7.250425000000000E9     4.650764689062313E-1   -6.943667601435234E1
 7.250450000000000E9     4.650421653969260E-1   -6.940900373097020E1
 7.250475000000000E9     4.650038176683284E-1   -6.938098996239415E1
 7.250500000000000E9     4.649705928924877E-1   -6.935307398585378E1
 7.250525000000000E9     4.649374024407281E-1   -6.932475933273598E1
 7.250550000000000E9     4.649166043537578E-1   -6.929746702650802E1
 7.250575000000000E9     4.648907184201886E-1   -6.927024928343477E1
 7.250600000000000E9     4.648654347344480E-1   -6.924286312693485E1
 7.250625000000000E9     4.648398390430385E-1   -6.921490683521006E1
 7.250650000000000E9     4.648150611773731E-1   -6.918775999470968E1
 7.250675000000000E9     4.647886969161626E-1   -6.916007674197924E1
 7.250700000000000E9     4.647627073100342E-1   -6.913188022662276E1
 7.250725000000000E9     4.647297532008255E-1   -6.910435674078137E1
 7.250750000000000E9     4.647002664533345E-1   -6.907688235109823E1
 7.250775000000000E9     4.646703781598052E-1   -6.904913483161295E1
 7.250800000000000E9     4.646377617105306E-1   -6.902168001076355E1
 7.250825000000000E9     4.646067868641564E-1   -6.899389980743844E1
 7.250850000000000E9     4.645734628502301E-1   -6.896655464981575E1
 7.250875000000000E9     4.645389320354806E-1   -6.893922571360559E1
 7.250900000000000E9     4.645043269842443E-1   -6.891203732039925E1
 7.250925000000000E9     4.644652457177965E-1   -6.888434071197544E1
 7.250950000000000E9     4.644287703864938E-1   -6.885676515799685E1
 7.250975000000000E9     4.643909444087574E-1   -6.882919563477667E1
 7.251000000000000E9     4.643496613574332E-1   -6.880160992296288E1
 7.251025000000000E9     4.643129310731435E-1   -6.877404264318984E1
 7.251050000000000E9     4.642714221461378E-1   -6.874656119681008E1
 7.251075000000000E9     4.642289050604968E-1   -6.871889566098334E1
 7.251100000000000E9     4.641967755795943E-1   -6.869094034501862E1
 7.251125000000000E9     4.641598495645564E-1   -6.866353093036112E1
 7.251150000000000E9     4.641273525832521E-1   -6.863588017065105E1
 7.251175000000000E9     4.640901762913802E-1   -6.860833469458532E1
 7.251200000000000E9     4.640533101540903E-1   -6.858040187383988E1
 7.251225000000000E9     4.640157430415798E-1   -6.855258151342463E1
 7.251250000000000E9     4.639786624930063E-1   -6.852487146161394E1
 7.251275000000000E9     4.639379773167107E-1   -6.849710830888789E1
 7.251300000000000E9     4.638970686350385E-1   -6.846930879364376E1
 7.251325000000000E9     4.638565614522056E-1   -6.844163478204452E1
 7.251350000000000E9     4.638149629108058E-1   -6.841375150307630E1
 7.251375000000000E9     4.637766205438615E-1   -6.838622234438498E1
 7.251400000000000E9     4.637397144699386E-1   -6.835859169374301E1
 7.251425000000000E9     4.636989170699534E-1   -6.833086905170899E1
 7.251450000000000E9     4.636569769590109E-1   -6.830326121349741E1
 7.251475000000000E9     4.636138884033692E-1   -6.827544590600034E1
 7.251500000000000E9     4.635742715350503E-1   -6.824756302499586E1
 7.251525000000000E9     4.635291701983862E-1   -6.822003084174663E1
 7.251550000000000E9     4.634880338282211E-1   -6.819223734964541E1
 7.251575000000000E9     4.634415230966957E-1   -6.816435348456376E1
 7.251600000000000E9     4.633951870001110E-1   -6.813697592141285E1
 7.251625000000000E9     4.633486934588850E-1   -6.810921783372467E1
 7.251650000000000E9     4.633043908144391E-1   -6.808099733306027E1
 7.251675000000000E9     4.632601551806619E-1   -6.805294036518735E1
 7.251700000000000E9     4.632179405217006E-1   -6.802496515368051E1
 7.251725000000000E9     4.631705283394978E-1   -6.799718731778438E1
 7.251750000000000E9     4.631245045499618E-1   -6.796910923174701E1
 7.251775000000000E9     4.630764817013009E-1   -6.794127983985675E1
 7.251800000000000E9     4.630283654031478E-1   -6.791321714412628E1
 7.251825000000000E9     4.629811761866548E-1   -6.788515138328592E1
 7.251850000000000E9     4.629337908907368E-1   -6.785672772396572E1
 7.251875000000000E9     4.628822945376955E-1   -6.782870636232801E1
 7.251900000000000E9     4.628289616694248E-1   -6.780082619222686E1
 7.251925000000000E9     4.627815947170696E-1   -6.777310148500722E1
 7.251950000000000E9     4.627306283961905E-1   -6.774535637519031E1
 7.251975000000000E9     4.626807388773369E-1   -6.771746179571848E1
 7.252000000000000E9     4.626290705481855E-1   -6.768976113587156E1
 7.252025000000000E9     4.625747528847145E-1   -6.766216204781384E1
 7.252050000000000E9     4.625235494123892E-1   -6.763431563627653E1
 7.252075000000000E9     4.624702591555996E-1   -6.760609135343073E1
 7.252100000000000E9     4.624170041096028E-1   -6.757809172575158E1
 7.252125000000000E9     4.623634871391886E-1   -6.755032629483041E1
 7.252150000000000E9     4.623080820738066E-1   -6.752242087437098E1
 7.252175000000000E9     4.622475057662187E-1   -6.749449284694870E1
 7.252200000000000E9     4.621953592845620E-1   -6.746657927440816E1
 7.252225000000000E9     4.621409044137635E-1   -6.743861860189631E1
 7.252250000000000E9     4.620834583893380E-1   -6.741043446183593E1
 7.252275000000000E9     4.620263096178810E-1   -6.738210910859277E1
 7.252300000000000E9     4.619671841498600E-1   -6.735423164181307E1
 7.252325000000000E9     4.619069137665742E-1   -6.732637857330825E1
 7.252350000000000E9     4.618487453896687E-1   -6.729799946672826E1
 7.252375000000000E9     4.617931745274647E-1   -6.726938258366224E1
 7.252400000000000E9     4.617320955419127E-1   -6.724117517965819E1
 7.252425000000000E9     4.616710976032616E-1   -6.721291560403451E1
 7.252450000000000E9     4.616103981534035E-1   -6.718436782165554E1
 7.252475000000000E9     4.615519983063940E-1   -6.715712893483229E1
 7.252500000000000E9     4.614948571631368E-1   -6.712959208405853E1
 7.252525000000000E9     4.614370932922360E-1   -6.710227385286255E1
 7.252550000000000E9     4.613765969525991E-1   -6.707454916408388E1
 7.252575000000000E9     4.613151861335038E-1   -6.704711902981281E1
 7.252600000000000E9     4.612529549063117E-1   -6.701959276550333E1
 7.252625000000000E9     4.611919791670330E-1   -6.699186986724098E1
 7.252650000000000E9     4.611313257850281E-1   -6.696387060973763E1
 7.252675000000000E9     4.610704374844240E-1   -6.693608193010493E1
 7.252700000000000E9     4.610085950703982E-1   -6.690807979564843E1
 7.252725000000000E9     4.609407840797713E-1   -6.688072733529599E1
 7.252750000000000E9     4.608790178145489E-1   -6.685251801293843E1
 7.252775000000000E9     4.608156124390541E-1   -6.682433153740342E1
 7.252800000000000E9     4.607501791664527E-1   -6.679610226869622E1
 7.252825000000000E9     4.606890409385306E-1   -6.676788746553265E1
 7.252850000000000E9     4.606218654776318E-1   -6.673933034957463E1
 7.252875000000000E9     4.605557357002433E-1   -6.671123168270695E1
 7.252900000000000E9     4.604908085946654E-1   -6.668277293710049E1
 7.252925000000000E9     4.604188239354521E-1   -6.665472325700006E1
 7.252950000000000E9     4.603496801005706E-1   -6.662630868482482E1
 7.252975000000000E9     4.602820599062990E-1   -6.659779037145651E1
 7.253000000000000E9     4.602135867047474E-1   -6.656914949679181E1
 7.253025000000000E9     4.601478101251721E-1   -6.654182302078728E1
 7.253050000000000E9     4.600798476468903E-1   -6.651452206191183E1
 7.253075000000000E9     4.600115224964109E-1   -6.648682690260870E1
 7.253100000000000E9     4.599470362403869E-1   -6.645890367909372E1
 7.253125000000000E9     4.598768163603664E-1   -6.643115577650646E1
 7.253150000000000E9     4.598085938590383E-1   -6.640323878967332E1
 7.253175000000000E9     4.597389819670099E-1   -6.637595601220237E1
 7.253200000000000E9     4.596672614164754E-1   -6.634840110065007E1
 7.253225000000000E9     4.595975142068308E-1   -6.632054466309116E1
 7.253250000000000E9     4.595266400938985E-1   -6.629264657151914E1
 7.253275000000000E9     4.594531839768429E-1   -6.626467247573888E1
 7.253300000000000E9     4.593812916002325E-1   -6.623647086936681E1
 7.253325000000000E9     4.593043674161436E-1   -6.620841251231006E1
 7.253350000000000E9     4.592279474787197E-1   -6.618020898748438E1
 7.253375000000000E9     4.591492230873520E-1   -6.615219061020255E1
 7.253400000000000E9     4.590732416054061E-1   -6.612358714347644E1
 7.253425000000000E9     4.589955797544544E-1   -6.609469549302300E1
 7.253450000000000E9     4.589141996688170E-1   -6.606683634135899E1
 7.253475000000000E9     4.588350238297294E-1   -6.603870506263031E1
 7.253500000000000E9     4.587552479288990E-1   -6.601005330437144E1
 7.253525000000000E9     4.586739166606548E-1   -6.598160635218225E1
 7.253550000000000E9     4.585938378095752E-1   -6.595305538620048E1
 7.253575000000000E9     4.585160061970612E-1   -6.592542216990272E1
 7.253600000000000E9     4.584360869967944E-1   -6.589790470901609E1
 7.253625000000000E9     4.583538675086196E-1   -6.587041456921439E1
 7.253650000000000E9     4.582716686449876E-1   -6.584271611105501E1
 7.253675000000000E9     4.581868538962389E-1   -6.581487140030607E1
 7.253700000000000E9     4.581065935280485E-1   -6.578692338126430E1
 7.253725000000000E9     4.580222160893859E-1   -6.575889362130550E1
 7.253750000000000E9     4.579378445455089E-1   -6.573128403285277E1
 7.253775000000000E9     4.578523521822077E-1   -6.570344853062328E1
 7.253800000000000E9     4.577641879017856E-1   -6.567540241487053E1
 7.253825000000000E9     4.576783530195833E-1   -6.564732840747776E1
 7.253850000000000E9     4.576001646924766E-1   -6.561925483979834E1
 7.253875000000000E9     4.575205003390201E-1   -6.559146402142032E1
 7.253900000000000E9     4.574351665106449E-1   -6.556345701367803E1
 7.253925000000000E9     4.573536178423124E-1   -6.553546515456185E1
 7.253950000000000E9     4.572664788975377E-1   -6.550742129543002E1
 7.253975000000000E9     4.571792249080048E-1   -6.547933232660216E1
 7.254000000000000E9     4.570915397976426E-1   -6.545148658416566E1
 7.254025000000000E9     4.570047728666084E-1   -6.542344615751892E1
 7.254050000000000E9     4.569157285252980E-1   -6.539554504559456E1
 7.254075000000000E9     4.568283037216127E-1   -6.536750745740902E1
 7.254100000000000E9     4.567386237404712E-1   -6.533939182733589E1
 7.254125000000000E9     4.566522185352379E-1   -6.531108010018009E1
 7.254150000000000E9     4.565623538789500E-1   -6.528275770771967E1
 7.254175000000000E9     4.564739342417389E-1   -6.525491893253174E1
 7.254200000000000E9     4.563827019633629E-1   -6.522758413752911E1
 7.254225000000000E9     4.562891828152582E-1   -6.519952176725904E1
 7.254250000000000E9     4.561930999438483E-1   -6.517118704415886E1
 7.254275000000000E9     4.561002258368427E-1   -6.514304203153711E1
 7.254300000000000E9     4.560046602184012E-1   -6.511483199212529E1
 7.254325000000000E9     4.559086850778462E-1   -6.508706427460838E1
 7.254350000000000E9     4.558093384929571E-1   -6.505888354223509E1
 7.254375000000000E9     4.557115270065605E-1   -6.503088206101357E1
 7.254400000000000E9     4.556160894350828E-1   -6.500333403999340E1
 7.254425000000000E9     4.555197733137751E-1   -6.497511010139924E1
 7.254450000000000E9     4.554199883296071E-1   -6.494726933345159E1
 7.254475000000000E9     4.553203455015962E-1   -6.491941222366916E1
 7.254500000000000E9     4.552211235846507E-1   -6.489133716623361E1
 7.254525000000000E9     4.551147618709276E-1   -6.486348683266934E1
 7.254550000000000E9     4.550151074270087E-1   -6.483548583108211E1
 7.254575000000000E9     4.549108546077787E-1   -6.480775396888696E1
 7.254600000000000E9     4.548053354595560E-1   -6.477958860125857E1
 7.254625000000000E9     4.546975909021898E-1   -6.475180301781378E1
 7.254650000000000E9     4.545915846050525E-1   -6.472427591340846E1
 7.254675000000000E9     4.544916506540885E-1   -6.469573451864967E1
 7.254700000000000E9     4.543949205053694E-1   -6.466710957634922E1
 7.254725000000000E9     4.542900861449491E-1   -6.463861628510145E1
 7.254750000000000E9     4.541906196493254E-1   -6.461027306268890E1
 7.254775000000000E9     4.540867290885013E-1   -6.458192013997822E1
 7.254800000000000E9     4.539790027412355E-1   -6.455383439339272E1
 7.254825000000000E9     4.538702670781588E-1   -6.452551694787485E1
 7.254850000000000E9     4.537649947744352E-1   -6.449680301219124E1
 7.254875000000000E9     4.536577464737754E-1   -6.446820009691169E1
 7.254900000000000E9     4.535478476731175E-1   -6.444005994694827E1
 7.254925000000000E9     4.534382784671130E-1   -6.441165971535824E1
 7.254950000000000E9     4.533307769194954E-1   -6.438408559059607E1
 7.254975000000000E9     4.532246165380012E-1   -6.435655300837914E1
 7.255000000000000E9     4.531130121652699E-1   -6.432893711501441E1
 7.255025000000000E9     4.530041525196493E-1   -6.430101170532086E1
 7.255050000000000E9     4.528931533957276E-1   -6.427322343228639E1
 7.255075000000000E9     4.527810243283656E-1   -6.424571590716711E1
 7.255100000000000E9     4.526667334077108E-1   -6.421811823902870E1
 7.255125000000000E9     4.525523079096133E-1   -6.419029348671143E1
 7.255150000000000E9     4.524351849857989E-1   -6.416224713434896E1
 7.255175000000000E9     4.523170297835145E-1   -6.413442213486205E1
 7.255200000000000E9     4.521949709541943E-1   -6.410727259215712E1
 7.255225000000000E9     4.520760407232525E-1   -6.407995271776214E1
 7.255250000000000E9     4.519582573804097E-1   -6.405176273797271E1
 7.255275000000000E9     4.518432017404954E-1   -6.402337428614381E1
 7.255300000000000E9     4.517230534036484E-1   -6.399519391013645E1
 7.255325000000000E9     4.516008747060113E-1   -6.396776700785009E1
 7.255350000000000E9     4.514794968710459E-1   -6.393970330929226E1
 7.255375000000000E9     4.513555481372283E-1   -6.391201409310966E1
 7.255400000000000E9     4.512293638054398E-1   -6.388403833946486E1
 7.255425000000000E9     4.511006526656554E-1   -6.385592079090455E1
 7.255450000000000E9     4.509747480876559E-1   -6.382784514292932E1
 7.255475000000000E9     4.508459127099015E-1   -6.379998535626005E1
 7.255500000000000E9     4.507269900429828E-1   -6.377240998639783E1
 7.255525000000000E9     4.506088369952565E-1   -6.374462935940693E1
 7.255550000000000E9     4.504869423353812E-1   -6.371655613967891E1
 7.255575000000000E9     4.503671276348298E-1   -6.368808730306943E1
 7.255600000000000E9     4.502439926501033E-1   -6.365983694048342E1
 7.255625000000000E9     4.501191967866272E-1   -6.363184373516263E1
 7.255650000000000E9     4.499924578255116E-1   -6.360395059561193E1
 7.255675000000000E9     4.498667313780829E-1   -6.357583793098422E1
 7.255700000000000E9     4.497399998185116E-1   -6.354786274204924E1
 7.255725000000000E9     4.496111690012218E-1   -6.351947244968937E1
 7.255750000000000E9     4.494793741877844E-1   -6.349124936492942E1
 7.255775000000000E9     4.493462598968217E-1   -6.346426489616243E1
 7.255800000000000E9     4.492143035416235E-1   -6.343709194983758E1
 7.255825000000000E9     4.490848283116839E-1   -6.341038343188377E1
 7.255850000000000E9     4.489505256260436E-1   -6.338310156759067E1
 7.255875000000000E9     4.488205253707956E-1   -6.335585562638141E1
 7.255900000000000E9     4.486885473200091E-1   -6.332846804888334E1
 7.255925000000000E9     4.485555880611573E-1   -6.330127693178940E1
 7.255950000000000E9     4.484178081645940E-1   -6.327418035554161E1
 7.255975000000000E9     4.482747952747901E-1   -6.324702656118659E1
 7.256000000000000E9     4.481334216234510E-1   -6.321949919894794E1
 7.256025000000000E9     4.479928269404937E-1   -6.319213697858836E1
 7.256050000000000E9     4.478561661155860E-1   -6.316419042005683E1
 7.256075000000000E9     4.477183184076334E-1   -6.313679355938729E1
 7.256100000000000E9     4.475804039486685E-1   -6.310907817629761E1
 7.256125000000000E9     4.474443892876682E-1   -6.308118422550989E1
 7.256150000000000E9     4.473037989276748E-1   -6.305368079984741E1
 7.256175000000000E9     4.471610935303285E-1   -6.302594582647797E1
 7.256200000000000E9     4.470185047104160E-1   -6.299787246649138E1
 7.256225000000000E9     4.468698767692553E-1   -6.297063213538282E1
 7.256250000000000E9     4.467245725747833E-1   -6.294331824914693E1
 7.256275000000000E9     4.465808077069982E-1   -6.291531055450879E1
 7.256300000000000E9     4.464322222924754E-1   -6.288691422789558E1
 7.256325000000000E9     4.462863150153755E-1   -6.285909528409096E1
 7.256350000000000E9     4.461382805076102E-1   -6.283232101011517E1
 7.256375000000000E9     4.459871768185984E-1   -6.280553461314278E1
 7.256400000000000E9     4.458369147941512E-1   -6.277837346135387E1
 7.256425000000000E9     4.456877480534124E-1   -6.275105188667548E1
 7.256450000000000E9     4.455391755391325E-1   -6.272331074866000E1
 7.256475000000000E9     4.453910922172432E-1   -6.269545952324933E1
 7.256500000000000E9     4.452347583380908E-1   -6.266831563615453E1
 7.256525000000000E9     4.450793626872572E-1   -6.264074516791840E1
 7.256550000000000E9     4.449222505972929E-1   -6.261349102604368E1
 7.256575000000000E9     4.447647040127316E-1   -6.258600258356862E1
 7.256600000000000E9     4.446102953279079E-1   -6.255854233404536E1
 7.256625000000000E9     4.444550413952047E-1   -6.253153624536183E1
 7.256650000000000E9     4.443027195081820E-1   -6.250473218119965E1
 7.256675000000000E9     4.441466539281557E-1   -6.247744905046328E1
 7.256700000000000E9     4.439899304862818E-1   -6.245057347889900E1
 7.256725000000000E9     4.438355998683590E-1   -6.242271484073808E1
 7.256750000000000E9     4.436810152716794E-1   -6.239548613247764E1
 7.256775000000000E9     4.435215988849030E-1   -6.236824812502369E1
 7.256800000000000E9     4.433584161045252E-1   -6.234129114569088E1
 7.256825000000000E9     4.431978046023914E-1   -6.231410446785429E1
 7.256850000000000E9     4.430336449893839E-1   -6.228667677430151E1
 7.256875000000000E9     4.428695708165449E-1   -6.225880727679549E1
 7.256900000000000E9     4.427047695065227E-1   -6.223109623291055E1
 7.256925000000000E9     4.425392870309539E-1   -6.220375115164191E1
 7.256950000000000E9     4.423701687051387E-1   -6.217698715559744E1
 7.256975000000000E9     4.421993615583728E-1   -6.214997282068793E1
 7.257000000000000E9     4.420288042013744E-1   -6.212328863035734E1
 7.257025000000000E9     4.418615207570004E-1   -6.209568838973976E1
 7.257050000000000E9     4.416941850056761E-1   -6.206784370368614E1
 7.257075000000000E9     4.415200625057520E-1   -6.204030926870414E1
 7.257100000000000E9     4.413478152448068E-1   -6.201335360632606E1
 7.257125000000000E9     4.411690044148605E-1   -6.198571411044465E1
 7.257150000000000E9     4.410012472500931E-1   -6.195870556110692E1
 7.257175000000000E9     4.408326693159824E-1   -6.193155075293029E1
 7.257200000000000E9     4.406627857699975E-1   -6.190420394655901E1
 7.257225000000000E9     4.404863085336371E-1   -6.187781427213363E1
 7.257250000000000E9     4.403130467291326E-1   -6.185135001789215E1
 7.257275000000000E9     4.401445600241840E-1   -6.182461782694050E1
 7.257300000000000E9     4.399714392046766E-1   -6.179760025398993E1
 7.257325000000000E9     4.397975976041745E-1   -6.177094995214910E1
 7.257350000000000E9     4.396204754948764E-1   -6.174343961385069E1
 7.257375000000000E9     4.394405962633282E-1   -6.171683732185154E1
 7.257400000000000E9     4.392620389974784E-1   -6.169016010586977E1
 7.257425000000000E9     4.390780572790333E-1   -6.166333614460690E1
 7.257450000000000E9     4.388950019570690E-1   -6.163615920985048E1
 7.257475000000000E9     4.387079700317141E-1   -6.160860473697580E1
 7.257500000000000E9     4.385213434914101E-1   -6.158140025926301E1
 7.257525000000000E9     4.383330384370194E-1   -6.155491004006298E1
 7.257550000000000E9     4.381430161889407E-1   -6.152794044765821E1
 7.257575000000000E9     4.379545217461843E-1   -6.150091181031173E1
 7.257600000000000E9     4.377675424839518E-1   -6.147371331469157E1
 7.257625000000000E9     4.375808584292760E-1   -6.144634275694373E1
 7.257650000000000E9     4.373866518988117E-1   -6.141921298778592E1
 7.257675000000000E9     4.371922442630780E-1   -6.139260873749068E1
 7.257700000000000E9     4.370038028632567E-1   -6.136664020789540E1
 7.257725000000000E9     4.368121396375972E-1   -6.134013014026277E1
 7.257750000000000E9     4.366208331845374E-1   -6.131340103385663E1
 7.257775000000000E9     4.364281024548352E-1   -6.128686186308824E1
 7.257800000000000E9     4.362336517510394E-1   -6.126047080044401E1
 7.257825000000000E9     4.360373119743854E-1   -6.123448243364691E1
 7.257850000000000E9     4.358403348820573E-1   -6.120811244841086E1
 7.257875000000000E9     4.356441652960770E-1   -6.118175150154069E1
 7.257900000000000E9     4.354527000383873E-1   -6.115458301102100E1
 7.257925000000000E9     4.352567616071330E-1   -6.112784967386002E1
 7.257950000000000E9     4.350545638832199E-1   -6.110118617851955E1
 7.257975000000000E9     4.348542136377491E-1   -6.107505910124832E1
 7.258000000000000E9     4.346510050455877E-1   -6.104858458010447E1
 7.258025000000000E9     4.344495743374397E-1   -6.102194745096567E1
 7.258050000000000E9     4.342450162353164E-1   -6.099494224259121E1
 7.258075000000000E9     4.340383415077357E-1   -6.096815004549562E1
 7.258100000000000E9     4.338296698739313E-1   -6.094189183379649E1
 7.258125000000000E9     4.336200687031213E-1   -6.091595813131027E1
 7.258150000000000E9     4.334138099404040E-1   -6.088966545830293E1
 7.258175000000000E9     4.332043460402604E-1   -6.086289172633820E1
 7.258200000000000E9     4.329965721510394E-1   -6.083614554521171E1
 7.258225000000000E9     4.327864504126623E-1   -6.080991951788410E1
 7.258250000000000E9     4.325768960467885E-1   -6.078363118929676E1
 7.258275000000000E9     4.323665727913377E-1   -6.075766956595464E1
 7.258300000000000E9     4.321521238350206E-1   -6.073161559534515E1
 7.258325000000000E9     4.319357472422872E-1   -6.070554952082156E1
 7.258350000000000E9     4.317153358628338E-1   -6.067941270925859E1
 7.258375000000000E9     4.314968341512030E-1   -6.065349431689913E1
 7.258400000000000E9     4.312788746848943E-1   -6.062774532576242E1
 7.258425000000000E9     4.310610710178331E-1   -6.060223263248402E1
 7.258450000000000E9     4.308439793317611E-1   -6.057631075636916E1
 7.258475000000000E9     4.306244175287980E-1   -6.054974564920573E1
 7.258500000000000E9     4.304019074980160E-1   -6.052375437574068E1
 7.258525000000000E9     4.301815740597669E-1   -6.049790773108684E1
 7.258550000000000E9     4.299561397027699E-1   -6.047251109352926E1
 7.258575000000000E9     4.297311583488211E-1   -6.044686521754264E1
 7.258600000000000E9     4.295022027157990E-1   -6.042052652871526E1
 7.258625000000000E9     4.292733544864455E-1   -6.039468795033918E1
 7.258650000000000E9     4.290442877828175E-1   -6.036892749665414E1
 7.258675000000000E9     4.288125985337379E-1   -6.034308341274230E1
 7.258700000000000E9     4.285797644631235E-1   -6.031785560983110E1
 7.258725000000000E9     4.283458849352037E-1   -6.029232448170410E1
 7.258750000000000E9     4.281128172700407E-1   -6.026666148234264E1
 7.258775000000000E9     4.278810153303144E-1   -6.024100135336807E1
 7.258800000000000E9     4.276506064225231E-1   -6.021625234189177E1
 7.258825000000000E9     4.274172459547019E-1   -6.019052711626445E1
 7.258850000000000E9     4.271818282927272E-1   -6.016495972104936E1
 7.258875000000000E9     4.269454231529602E-1   -6.013997729215195E1
 7.258900000000000E9     4.267036428988112E-1   -6.011459321040593E1
 7.258925000000000E9     4.264585634418802E-1   -6.008882418144707E1
 7.258950000000000E9     4.262157659675380E-1   -6.006352123803406E1
 7.258975000000000E9     4.259699469997873E-1   -6.003871638311136E1
 7.259000000000000E9     4.257247763927272E-1   -6.001355922532951E1
 7.259025000000000E9     4.254837828988970E-1   -5.998857618464058E1
 7.259050000000000E9     4.252369054716555E-1   -5.996343275810922E1
 7.259075000000000E9     4.249985211519169E-1   -5.993838824017567E1
 7.259100000000000E9     4.247556420351931E-1   -5.991307020434341E1
 7.259125000000000E9     4.245133278102753E-1   -5.988852344127666E1
 7.259150000000000E9     4.242656618164492E-1   -5.986344825316903E1
 7.259175000000000E9     4.240159744646717E-1   -5.983827490387606E1
 7.259200000000000E9     4.237647846098747E-1   -5.981323164323813E1
 7.259225000000000E9     4.235158673649173E-1   -5.978837133348055E1
 7.259250000000000E9     4.232595087701160E-1   -5.976379587479088E1
 7.259275000000000E9     4.230021406380892E-1   -5.973908587382817E1
 7.259300000000000E9     4.227496854924572E-1   -5.971444582782134E1
 7.259325000000000E9     4.224983032074288E-1   -5.968949979908106E1
 7.259350000000000E9     4.222433813104663E-1   -5.966518079967492E1
 7.259375000000000E9     4.219872278280180E-1   -5.964073057068180E1
 7.259400000000000E9     4.217296891554527E-1   -5.961595044658696E1
 7.259425000000000E9     4.214718032704171E-1   -5.959175472513811E1
 7.259450000000000E9     4.212048427300760E-1   -5.956789162923850E1
 7.259475000000000E9     4.209428932520713E-1   -5.954346592265942E1
 7.259500000000000E9     4.206761771481780E-1   -5.951893646679448E1
 7.259525000000000E9     4.204108593837656E-1   -5.949471069970508E1
 7.259550000000000E9     4.201392149956915E-1   -5.947108769305467E1
 7.259575000000000E9     4.198729690523714E-1   -5.944705629251953E1
 7.259600000000000E9     4.196046115530048E-1   -5.942250598978210E1
 7.259625000000000E9     4.193389605656745E-1   -5.939861517175101E1
 7.259650000000000E9     4.190724303129492E-1   -5.937478774238937E1
 7.259675000000000E9     4.188046052811753E-1   -5.935089794544762E1
 7.259700000000000E9     4.185351599737371E-1   -5.932749127040515E1
 7.259725000000000E9     4.182609672776953E-1   -5.930371987821228E1
 7.259750000000000E9     4.179879174210190E-1   -5.928003065845995E1
 7.259775000000000E9     4.177102386735643E-1   -5.925616926148357E1
 7.259800000000000E9     4.174358922522318E-1   -5.923284575674987E1
 7.259825000000000E9     4.171548614398914E-1   -5.920993640766819E1
 7.259850000000000E9     4.168747487333186E-1   -5.918595553209655E1
 7.259875000000000E9     4.165936131647907E-1   -5.916268427541237E1
 7.259900000000000E9     4.163050169115602E-1   -5.913924340918159E1
 7.259925000000000E9     4.160213063820009E-1   -5.911627835309848E1
 7.259950000000000E9     4.157367399868023E-1   -5.909341806449551E1
 7.259975000000000E9     4.154471341687314E-1   -5.907080537334124E1
 7.260000000000000E9     4.151559703460679E-1   -5.904798874913676E1
 7.260025000000000E9     4.148609254951496E-1   -5.902523191927573E1
 7.260050000000000E9     4.145684032719259E-1   -5.900256205068772E1
 7.260075000000000E9     4.142703016848781E-1   -5.897949868760028E1
 7.260100000000000E9     4.139701185492063E-1   -5.895699552915272E1
 7.260125000000000E9     4.136734412391400E-1   -5.893465174893132E1
 7.260150000000000E9     4.133744857532022E-1   -5.891244354976435E1
 7.260175000000000E9     4.130840286306408E-1   -5.888941329838961E1
 7.260200000000000E9     4.127881069003207E-1   -5.886689464946966E1
 7.260225000000000E9     4.124945461530630E-1   -5.884356212044995E1
 7.260250000000000E9     4.121970586655101E-1   -5.882099624139460E1
 7.260275000000000E9     4.119034040307935E-1   -5.879810669172473E1
 7.260300000000000E9     4.115993556915813E-1   -5.877580139468238E1
 7.260325000000000E9     4.112982262348091E-1   -5.875343150231594E1
 7.260350000000000E9     4.109940812108317E-1   -5.873069485262126E1
 7.260375000000000E9     4.106883538562100E-1   -5.870854919542627E1
 7.260400000000000E9     4.103819754273474E-1   -5.868639790008893E1
 7.260425000000000E9     4.100761524498085E-1   -5.866417909145159E1
 7.260450000000000E9     4.097672432059087E-1   -5.864297375281205E1
 7.260475000000000E9     4.094547088056433E-1   -5.862173440520815E1
 7.260500000000000E9     4.091457470926982E-1   -5.860055310087612E1
 7.260525000000000E9     4.088367231346940E-1   -5.857917943397747E1
 7.260550000000000E9     4.085210741262778E-1   -5.855776677320780E1
 7.260575000000000E9     4.082033226323614E-1   -5.853685139189204E1
 7.260600000000000E9     4.078888135904385E-1   -5.851557626117392E1
 7.260625000000000E9     4.075658054902775E-1   -5.849503735840178E1
 7.260650000000000E9     4.072476660152086E-1   -5.847414171186683E1
 7.260675000000000E9     4.069223132873435E-1   -5.845299194680262E1
 7.260700000000000E9     4.065949973263890E-1   -5.843245235072678E1
 7.260725000000000E9     4.062813349220678E-1   -5.841171820896520E1
 7.260750000000000E9     4.059586198031834E-1   -5.839069540573703E1
 7.260775000000000E9     4.056392125749620E-1   -5.836976027413216E1
 7.260800000000000E9     4.053192464114593E-1   -5.834882887010654E1
 7.260825000000000E9     4.049976476133915E-1   -5.832819652056434E1
 7.260850000000000E9     4.046706396471377E-1   -5.830716054803892E1
 7.260875000000000E9     4.043441646731807E-1   -5.828662689407084E1
 7.260900000000000E9     4.040129967610651E-1   -5.826612542402299E1
 7.260925000000000E9     4.036827137993285E-1   -5.824565236364269E1
 7.260950000000000E9     4.033524698676511E-1   -5.822489532891962E1
 7.260975000000000E9     4.030160948104412E-1   -5.820452492017577E1
 7.261000000000000E9     4.026760593669902E-1   -5.818532422652130E1
 7.261025000000000E9     4.023406206870877E-1   -5.816577323780178E1
 7.261050000000000E9     4.019953900589686E-1   -5.814590812737825E1
 7.261075000000000E9     4.016547340165835E-1   -5.812644859931787E1
 7.261100000000000E9     4.013111622916117E-1   -5.810669080843284E1
 7.261125000000000E9     4.009658068567644E-1   -5.808754781838397E1
 7.261150000000000E9     4.006191646402700E-1   -5.806843467023890E1
 7.261175000000000E9     4.002719778872065E-1   -5.804953504434279E1
 7.261200000000000E9     3.999184817119774E-1   -5.803063789106024E1
 7.261225000000000E9     3.995634270427189E-1   -5.801186625916474E1
 7.261250000000000E9     3.992117819733197E-1   -5.799294134248374E1
 7.261275000000000E9     3.988618940945103E-1   -5.797490209585018E1
 7.261300000000000E9     3.985099358705785E-1   -5.795683945692068E1
 7.261325000000000E9     3.981565136251380E-1   -5.793837954164812E1
 7.261350000000000E9     3.978026902818591E-1   -5.792006749711999E1
 7.261375000000000E9     3.974455039692982E-1   -5.790210166280930E1
 7.261400000000000E9     3.970919654058350E-1   -5.788415480927418E1
 7.261425000000000E9     3.967352932203937E-1   -5.786634953474738E1
 7.261450000000000E9     3.963734648400838E-1   -5.784908323582184E1
 7.261475000000000E9     3.960180524136704E-1   -5.783127258464038E1
 7.261500000000000E9     3.956536643992402E-1   -5.781380369805890E1
 7.261525000000000E9     3.952922576494466E-1   -5.779646001996214E1
 7.261550000000000E9     3.949222216229468E-1   -5.777931179693432E1
 7.261575000000000E9     3.945524401367036E-1   -5.776226613048994E1
 7.261600000000000E9     3.941823053779343E-1   -5.774573829350683E1
 7.261625000000000E9     3.938182625818574E-1   -5.772843673658978E1
 7.261650000000000E9     3.934464206500456E-1   -5.771136880327207E1
 7.261675000000000E9     3.930815395045731E-1   -5.769419225562768E1
 7.261700000000000E9     3.927105932395462E-1   -5.767769118966375E1
 7.261725000000000E9     3.923364932383932E-1   -5.766136328456970E1
 7.261750000000000E9     3.919624694538353E-1   -5.764539041993214E1
 7.261775000000000E9     3.915770805237068E-1   -5.762945891159519E1
 7.261800000000000E9     3.912038679642380E-1   -5.761285673137166E1
 7.261825000000000E9     3.908240655506719E-1   -5.759708838056051E1
 7.261850000000000E9     3.904437347185862E-1   -5.758175687117691E1
 7.261875000000000E9     3.900632976769727E-1   -5.756614437353421E1
 7.261900000000000E9     3.896835121416315E-1   -5.755061969622015E1
 7.261925000000000E9     3.893036235084926E-1   -5.753623536780984E1
 7.261950000000000E9     3.889186216159091E-1   -5.752111277622907E1
 7.261975000000000E9     3.885413905326874E-1   -5.750744622706009E1
 7.262000000000000E9     3.881600651929863E-1   -5.749330302899604E1
 7.262025000000000E9     3.877831857339450E-1   -5.747911449161103E1
 7.262050000000000E9     3.873944889972671E-1   -5.746496132009562E1
 7.262075000000000E9     3.870010102089345E-1   -5.745033334535526E1
 7.262100000000000E9     3.866058402834345E-1   -5.743628619191976E1
 7.262125000000000E9     3.862074825966288E-1   -5.742212138624519E1
 7.262150000000000E9     3.858091201893272E-1   -5.740808422766184E1
 7.262175000000000E9     3.854038418434524E-1   -5.739493698831014E1
 7.262200000000000E9     3.850007067878136E-1   -5.738101755089415E1
 7.262225000000000E9     3.846007197421658E-1   -5.736828313944288E1
 7.262250000000000E9     3.841977243185935E-1   -5.735432835330072E1
 7.262275000000000E9     3.837946492836242E-1   -5.734100622747570E1
 7.262300000000000E9     3.833868182200975E-1   -5.732788556014603E1
 7.262325000000000E9     3.829708410500682E-1   -5.731446832304390E1
 7.262350000000000E9     3.825591923087039E-1   -5.730293433263991E1
 7.262375000000000E9     3.821542284504530E-1   -5.729061751934511E1
 7.262400000000000E9     3.817435710263680E-1   -5.727847426638483E1
 7.262425000000000E9     3.813328800230058E-1   -5.726673795604777E1
 7.262450000000000E9     3.809225071074931E-1   -5.725444581004840E1
 7.262475000000000E9     3.805110541873065E-1   -5.724242967835252E1
 7.262500000000000E9     3.801011821752736E-1   -5.723098083280239E1
 7.262525000000000E9     3.796872816293354E-1   -5.722010046518643E1
 7.262550000000000E9     3.792747350424480E-1   -5.720893641605345E1
 7.262575000000000E9     3.788560724186609E-1   -5.719760156363689E1
 7.262600000000000E9     3.784364956714625E-1   -5.718721039282435E1
 7.262625000000000E9     3.780141065486496E-1   -5.717715062231767E1
 7.262650000000000E9     3.775896682296546E-1   -5.716713242050544E1
 7.262675000000000E9     3.771638110694647E-1   -5.715765271626572E1
 7.262700000000000E9     3.767404210811074E-1   -5.714708027464316E1
 7.262725000000000E9     3.763107508309133E-1   -5.713797331571781E1
 7.262750000000000E9     3.758842182332598E-1   -5.712903404725262E1
 7.262775000000000E9     3.754527420119475E-1   -5.711955157980074E1
 7.262800000000000E9     3.750246442387989E-1   -5.711105055692663E1
 7.262825000000000E9     3.745877280113880E-1   -5.710206321316714E1
 7.262850000000000E9     3.741559025051091E-1   -5.709354612099001E1
 7.262875000000000E9     3.737235840235019E-1   -5.708542117499498E1
 7.262900000000000E9     3.732876354621639E-1   -5.707692136988666E1
 7.262925000000000E9     3.728523324447729E-1   -5.706802662403857E1
 7.262950000000000E9     3.724134529687115E-1   -5.706053401231258E1
 7.262975000000000E9     3.719704025515077E-1   -5.705337279682431E1
 7.263000000000000E9     3.715291076028066E-1   -5.704561842560727E1
 7.263025000000000E9     3.710803966171365E-1   -5.703868801911651E1
 7.263050000000000E9     3.706364743700505E-1   -5.703215086761881E1
 7.263075000000000E9     3.701899621378092E-1   -5.702556068342572E1
 7.263100000000000E9     3.697456024676292E-1   -5.701992187895697E1
 7.263125000000000E9     3.692942894056059E-1   -5.701445482305968E1
 7.263150000000000E9     3.688497987893139E-1   -5.700817227229830E1
 7.263175000000000E9     3.683962278916776E-1   -5.700210415679089E1
 7.263200000000000E9     3.679489914920479E-1   -5.699684086356845E1
 7.263225000000000E9     3.674944879356392E-1   -5.699193376846446E1
 7.263250000000000E9     3.670450329139077E-1   -5.698610742260214E1
 7.263275000000000E9     3.665850870420070E-1   -5.698136489275515E1
 7.263300000000000E9     3.661343736972755E-1   -5.697693326968868E1
 7.263325000000000E9     3.656828008458188E-1   -5.697278136214168E1
 7.263350000000000E9     3.652137154152087E-1   -5.696899874942273E1
 7.263375000000000E9     3.647511148898217E-1   -5.696546645287631E1
 7.263400000000000E9     3.642905496848256E-1   -5.696217218300132E1
 7.263425000000000E9     3.638338707395954E-1   -5.695888176778973E1
 7.263450000000000E9     3.633696846792189E-1   -5.695607068940523E1
 7.263475000000000E9     3.628998391796488E-1   -5.695404902852627E1
 7.263500000000000E9     3.624415104181015E-1   -5.695161799690897E1
 7.263525000000000E9     3.619728508909352E-1   -5.695045991936307E1
 7.263550000000000E9     3.615076314724969E-1   -5.694840793887992E1
 7.263575000000000E9     3.610349927664519E-1   -5.694776776574489E1
 7.263600000000000E9     3.605596764338099E-1   -5.694645580784550E1
 7.263625000000000E9     3.600918438903808E-1   -5.694511535633562E1
 7.263650000000000E9     3.596226341133525E-1   -5.694510277617758E1
 7.263675000000000E9     3.591487949879148E-1   -5.694503507692612E1
 7.263700000000000E9     3.586735729121504E-1   -5.694495183708259E1
 7.263725000000000E9     3.581963416901954E-1   -5.694490408382369E1
 7.263750000000000E9     3.577276928107997E-1   -5.694521137691455E1
 7.263775000000000E9     3.572476620715137E-1   -5.694668056290572E1
 7.263800000000000E9     3.567693707897769E-1   -5.694699190206992E1
 7.263825000000000E9     3.562873133288431E-1   -5.694953239226316E1
 7.263850000000000E9     3.558050273335667E-1   -5.695117468184458E1
 7.263875000000000E9     3.553158662314975E-1   -5.695392658021010E1
 7.263900000000000E9     3.548319935955079E-1   -5.695669936303126E1
 7.263925000000000E9     3.543437893281979E-1   -5.695905211298965E1
 7.263950000000000E9     3.538570621345463E-1   -5.696198631056432E1
 7.263975000000000E9     3.533704554392713E-1   -5.696587945603816E1
 7.264000000000000E9     3.528793595396658E-1   -5.696890435419900E1
 7.264025000000000E9     3.523955528632066E-1   -5.697304930463738E1
 7.264050000000000E9     3.519063060278250E-1   -5.697810631517670E1
 7.264075000000000E9     3.514271796346038E-1   -5.698149186642170E1
 7.264100000000000E9     3.509355688624992E-1   -5.698786929147570E1
 7.264125000000000E9     3.504371843023958E-1   -5.699259400030068E1
 7.264150000000000E9     3.499469240961607E-1   -5.699792219519058E1
 7.264175000000000E9     3.494521322671378E-1   -5.700392107382687E1
 7.264200000000000E9     3.489516278210578E-1   -5.701102634274534E1
 7.264225000000000E9     3.484485455891155E-1   -5.701743407843230E1
 7.264250000000000E9     3.479573652163591E-1   -5.702398719928318E1
 7.264275000000000E9     3.474613076870132E-1   -5.703171532699238E1
 7.264300000000000E9     3.469681767204784E-1   -5.703997349753536E1
 7.264325000000000E9     3.464772426381477E-1   -5.704705763638248E1
 7.264350000000000E9     3.459754519594210E-1   -5.705600624154576E1
 7.264375000000000E9     3.454781158411839E-1   -5.706575179266348E1
 7.264400000000000E9     3.449754415836297E-1   -5.707518245903405E1
 7.264425000000000E9     3.444700633395285E-1   -5.708450841526977E1
 7.264450000000000E9     3.439594323023169E-1   -5.709544506959390E1
 7.264475000000000E9     3.434525369264304E-1   -5.710591320161957E1
 7.264500000000000E9     3.429411152457408E-1   -5.711649025690591E1
 7.264525000000000E9     3.424302427121861E-1   -5.712848340472041E1
 7.264550000000000E9     3.419260060290827E-1   -5.713881052977980E1
 7.264575000000000E9     3.414230059879534E-1   -5.715193814171306E1
 7.264600000000000E9     3.409104029348681E-1   -5.716310901600055E1
 7.264625000000000E9     3.404004688596612E-1   -5.717629053658401E1
 7.264650000000000E9     3.398804760915438E-1   -5.718911539410535E1
 7.264675000000000E9     3.393688598373278E-1   -5.720403822613037E1
 7.264700000000000E9     3.388423463994958E-1   -5.721721374865606E1
 7.264725000000000E9     3.383244780009595E-1   -5.723197903603776E1
 7.264750000000000E9     3.378051746678842E-1   -5.724749720424437E1
 7.264775000000000E9     3.372836201060198E-1   -5.726333095854978E1
 7.264800000000000E9     3.367601104457260E-1   -5.727812662174158E1
 7.264825000000000E9     3.362447245474789E-1   -5.729427000307218E1
 7.264850000000000E9     3.357278296251262E-1   -5.731095530457631E1
 7.264875000000000E9     3.352170862037142E-1   -5.732850879786017E1
 7.264900000000000E9     3.347075871802632E-1   -5.734602109946227E1
 7.264925000000000E9     3.341888021540170E-1   -5.736261757451276E1
 7.264950000000000E9     3.336642849005392E-1   -5.738190945484031E1
 7.264975000000000E9     3.331469963894474E-1   -5.740079131181771E1
 7.265000000000000E9     3.326167956044426E-1   -5.742075783770041E1
 7.265025000000000E9     3.320935277959541E-1   -5.744019333401008E1
 7.265050000000000E9     3.315664256532440E-1   -5.746008963471631E1
 7.265075000000000E9     3.310358323075104E-1   -5.748214809020733E1
 7.265100000000000E9     3.305104249920724E-1   -5.750326863190664E1
 7.265125000000000E9     3.299838599960924E-1   -5.752397571786847E1
 7.265150000000000E9     3.294569257348283E-1   -5.754593647898513E1
 7.265175000000000E9     3.289442169042084E-1   -5.756895372724343E1
 7.265200000000000E9     3.284166625088123E-1   -5.759163708121246E1
 7.265225000000000E9     3.278888558331289E-1   -5.761561676676752E1
 7.265250000000000E9     3.273555906961865E-1   -5.763815982789981E1
 7.265275000000000E9     3.268121594122490E-1   -5.766299063106858E1
 7.265300000000000E9     3.262787494978868E-1   -5.768818287289165E1
 7.265325000000000E9     3.257439598968728E-1   -5.771254351236113E1
 7.265350000000000E9     3.252109958382640E-1   -5.774001476561408E1
 7.265375000000000E9     3.246828771374979E-1   -5.776591501447632E1
 7.265400000000000E9     3.241462947835324E-1   -5.779396104965713E1
 7.265425000000000E9     3.236255271519559E-1   -5.781959494929101E1
 7.265450000000000E9     3.231036120862459E-1   -5.784838485508165E1
 7.265475000000000E9     3.225669630585760E-1   -5.787588685507226E1
 7.265500000000000E9     3.220435873810045E-1   -5.790541478085226E1
 7.265525000000000E9     3.215099492918667E-1   -5.793498860551900E1
 7.265550000000000E9     3.209801845779224E-1   -5.796534103518980E1
 7.265575000000000E9     3.204434858297097E-1   -5.799603869987018E1
 7.265600000000000E9     3.199165563403642E-1   -5.802661539539302E1
 7.265625000000000E9     3.193736958857787E-1   -5.805731070089639E1
 7.265650000000000E9     3.188340819845714E-1   -5.809083171838174E1
 7.265675000000000E9     3.182984174384076E-1   -5.812419788838441E1
 7.265700000000000E9     3.177548483804215E-1   -5.815809926425439E1
 7.265725000000000E9     3.172278260741118E-1   -5.819249891155571E1
 7.265750000000000E9     3.166895177969682E-1   -5.822653859412018E1
 7.265775000000000E9     3.161581776560373E-1   -5.826175854841071E1
 7.265800000000000E9     3.156239989095193E-1   -5.829768211061312E1
 7.265825000000000E9     3.150902023959611E-1   -5.833403409910223E1
 7.265850000000000E9     3.145476257560291E-1   -5.837118972961759E1
 7.265875000000000E9     3.140107668752097E-1   -5.840845668444990E1
 7.265900000000000E9     3.134623472538854E-1   -5.844691570876942E1
 7.265925000000000E9     3.129150843294572E-1   -5.848564677606501E1
 7.265950000000000E9     3.123731960621500E-1   -5.852609973502636E1
 7.265975000000000E9     3.118373816799210E-1   -5.856506096403903E1
 7.266000000000000E9     3.113038865267400E-1   -5.860521532863780E1
 7.266025000000000E9     3.107764738838260E-1   -5.864580994913751E1
 7.266050000000000E9     3.102482716387870E-1   -5.868746063574802E1
 7.266075000000000E9     3.097179360040114E-1   -5.872814594672625E1
 7.266100000000000E9     3.091749736949055E-1   -5.877097669655742E1
 7.266125000000000E9     3.086350055662475E-1   -5.881497658463260E1
 7.266150000000000E9     3.080964725331141E-1   -5.885872573417343E1
 7.266175000000000E9     3.075470055203786E-1   -5.890457073206473E1
 7.266200000000000E9     3.070068420245408E-1   -5.895132425608729E1
 7.266225000000000E9     3.064581542948788E-1   -5.899577883918126E1
 7.266250000000000E9     3.059240384666982E-1   -5.904330213033420E1
 7.266275000000000E9     3.053947042279613E-1   -5.908965344845194E1
 7.266300000000000E9     3.048654258901207E-1   -5.913765904216805E1
 7.266325000000000E9     3.043245328440594E-1   -5.918589352964884E1
 7.266350000000000E9     3.037993712541358E-1   -5.923537523724991E1
 7.266375000000000E9     3.032625885160083E-1   -5.928599761889827E1
 7.266400000000000E9     3.027274489632084E-1   -5.933594636743219E1
 7.266425000000000E9     3.021933665566774E-1   -5.938960195211974E1
 7.266450000000000E9     3.016456094489482E-1   -5.944009439018929E1
 7.266475000000000E9     3.010989775316153E-1   -5.949298751167435E1
 7.266500000000000E9     3.005667288167337E-1   -5.954690188405516E1
 7.266525000000000E9     3.000323953108188E-1   -5.960225404562186E1
 7.266550000000000E9     2.994988091085134E-1   -5.965652411995659E1
 7.266575000000000E9     2.989728017549169E-1   -5.971270126710603E1
 7.266600000000000E9     2.984386866071441E-1   -5.976760384519639E1
 7.266625000000000E9     2.979201283536302E-1   -5.982519712247737E1
 7.266650000000000E9     2.973966715708800E-1   -5.988152331884324E1
 7.266675000000000E9     2.968773450025708E-1   -5.994036337383324E1
 7.266700000000000E9     2.963405453739315E-1   -5.999959608279278E1
 7.266725000000000E9     2.958194389328934E-1   -6.006021043815471E1
 7.266750000000000E9     2.952797262928903E-1   -6.011946646457321E1
 7.266775000000000E9     2.947439232826854E-1   -6.018286877733141E1
 7.266800000000000E9     2.942260572097081E-1   -6.024442343101686E1
 7.266825000000000E9     2.937140653608517E-1   -6.030592570646663E1
 7.266850000000000E9     2.931849712530171E-1   -6.036852125924087E1
 7.266875000000000E9     2.926716816229722E-1   -6.043234123866796E1
 7.266900000000000E9     2.921569986647015E-1   -6.049602432922320E1
 7.266925000000000E9     2.916427001741611E-1   -6.056064822329901E1
 7.266950000000000E9     2.911293694508037E-1   -6.062589839198058E1
 7.266975000000000E9     2.906093563241909E-1   -6.069447795567799E1
 7.267000000000000E9     2.900915127420889E-1   -6.075986763092752E1
 7.267025000000000E9     2.895693743158181E-1   -6.082793692884430E1
 7.267050000000000E9     2.890621508060203E-1   -6.089543462912691E1
 7.267075000000000E9     2.885482889139837E-1   -6.096555604951856E1
 7.267100000000000E9     2.880278925050701E-1   -6.103602218162479E1
 7.267125000000000E9     2.875152331962911E-1   -6.110781060834407E1
 7.267150000000000E9     2.870036015777389E-1   -6.118039747056762E1
 7.267175000000000E9     2.864926020905219E-1   -6.125188981724786E1
 7.267200000000000E9     2.859952538494658E-1   -6.132552567207323E1
 7.267225000000000E9     2.854853570269882E-1   -6.140048102277977E1
 7.267250000000000E9     2.849791959782238E-1   -6.147483969907933E1
 7.267275000000000E9     2.844700926062378E-1   -6.155106521354767E1
 7.267300000000000E9     2.839528988861067E-1   -6.162996444675539E1
 7.267325000000000E9     2.834477917769632E-1   -6.170783889563720E1
 7.267350000000000E9     2.829487195996032E-1   -6.178685535596148E1
 7.267375000000000E9     2.824339257156487E-1   -6.186704845841916E1
 7.267400000000000E9     2.819344533414035E-1   -6.194787544023541E1
 7.267425000000000E9     2.814387454113210E-1   -6.202867306035540E1
 7.267450000000000E9     2.809299492573802E-1   -6.211071401007091E1
 7.267475000000000E9     2.804404012112094E-1   -6.219392534190003E1
 7.267500000000000E9     2.799558256456549E-1   -6.227710786704311E1
 7.267525000000000E9     2.794687256332462E-1   -6.236050901607236E1
 7.267550000000000E9     2.789691799192801E-1   -6.244668932473846E1
 7.267575000000000E9     2.784842535883675E-1   -6.253095033991936E1
 7.267600000000000E9     2.779980537213227E-1   -6.261729131834686E1
 7.267625000000000E9     2.775086058548002E-1   -6.270408785612838E1
 7.267650000000000E9     2.770239480193020E-1   -6.279408941686621E1
 7.267675000000000E9     2.765369454553770E-1   -6.288383185305609E1
 7.267700000000000E9     2.760729407739352E-1   -6.297106669035222E1
 7.267725000000000E9     2.755988226091931E-1   -6.305779322286256E1
 7.267750000000000E9     2.751369121444491E-1   -6.314709555034401E1
 7.267775000000000E9     2.746751340834895E-1   -6.323820123415165E1
 7.267800000000000E9     2.741988985133849E-1   -6.332966610059898E1
 7.267825000000000E9     2.737331926563875E-1   -6.342337712410443E1
 7.267850000000000E9     2.732651428064267E-1   -6.351890992377640E1
 7.267875000000000E9     2.727888946213318E-1   -6.361705294162508E1
 7.267900000000000E9     2.723149156031608E-1   -6.371446166985074E1
 7.267925000000000E9     2.718392949327936E-1   -6.381353439999300E1
 7.267950000000000E9     2.713712099702222E-1   -6.391391274278158E1
 7.267975000000000E9     2.709123685871394E-1   -6.401478120458209E1
 7.268000000000000E9     2.704533478122262E-1   -6.411613017529083E1
 7.268025000000000E9     2.699974597762957E-1   -6.421836604862843E1
 7.268050000000000E9     2.695447065266423E-1   -6.432101149518631E1
 7.268075000000000E9     2.691012646640058E-1   -6.442166947973801E1
 7.268100000000000E9     2.686610526392480E-1   -6.452383533592945E1
 7.268125000000000E9     2.682149439799477E-1   -6.462806318525507E1
 7.268150000000000E9     2.677788676241105E-1   -6.473264928567357E1
 7.268175000000000E9     2.673295930389590E-1   -6.483918973281982E1
 7.268200000000000E9     2.668943513970084E-1   -6.495028712368041E1
 7.268225000000000E9     2.664557509218409E-1   -6.505768209617383E1
 7.268250000000000E9     2.660180784344973E-1   -6.516800909007341E1
 7.268275000000000E9     2.655779086218810E-1   -6.527871201024129E1
 7.268300000000000E9     2.651514925724427E-1   -6.539089374716077E1
 7.268325000000000E9     2.647184072635312E-1   -6.550119170189399E1
 7.268350000000000E9     2.643076749366302E-1   -6.561402457272295E1
 7.268375000000000E9     2.638788865860932E-1   -6.572575237919035E1
 7.268400000000000E9     2.634642289941463E-1   -6.584128704837691E1
 7.268425000000000E9     2.630522753008163E-1   -6.595651356475152E1
 7.268450000000000E9     2.626237526744885E-1   -6.607228693675033E1
 7.268475000000000E9     2.622339463909407E-1   -6.618901941560267E1
 7.268500000000000E9     2.618236268011260E-1   -6.630791308561552E1
 7.268525000000000E9     2.614122597310279E-1   -6.642310895234063E1
 7.268550000000000E9     2.610003538934497E-1   -6.654520260473130E1
 7.268575000000000E9     2.605914407301095E-1   -6.666511600753887E1
 7.268600000000000E9     2.602007331813615E-1   -6.678753711428918E1
 7.268625000000000E9     2.598052387296212E-1   -6.690823051533665E1
 7.268650000000000E9     2.594211766715190E-1   -6.703084478752905E1
 7.268675000000000E9     2.590326551504534E-1   -6.715505997492028E1
 7.268700000000000E9     2.586681185972505E-1   -6.727707927521161E1
 7.268725000000000E9     2.582801631216664E-1   -6.740240079626797E1
 7.268750000000000E9     2.578934616976535E-1   -6.753065629550645E1
 7.268775000000000E9     2.575139519022395E-1   -6.766014836769502E1
 7.268800000000000E9     2.571357695007673E-1   -6.779003287443355E1
 7.268825000000000E9     2.567482341459721E-1   -6.791933922042713E1
 7.268850000000000E9     2.563839548351218E-1   -6.804961014359937E1
 7.268875000000000E9     2.560253993374074E-1   -6.817900248735931E1
 7.268900000000000E9     2.556723324088148E-1   -6.831024179004592E1
 7.268925000000000E9     2.553268538592278E-1   -6.843925871488453E1
 7.268950000000000E9     2.549726837925071E-1   -6.857083300187881E1
 7.268975000000000E9     2.546251072860522E-1   -6.870314909974969E1
 7.269000000000000E9     2.542936444170982E-1   -6.883702981549558E1
 7.269025000000000E9     2.539513393195465E-1   -6.897257737475688E1
 7.269050000000000E9     2.536015441977240E-1   -6.911001440501420E1
 7.269075000000000E9     2.532504425341331E-1   -6.925011375978276E1
 7.269100000000000E9     2.529210640062444E-1   -6.939112266884500E1
 7.269125000000000E9     2.525786999759015E-1   -6.952843193592483E1
 7.269150000000000E9     2.522690551153587E-1   -6.966517152855016E1
 7.269175000000000E9     2.519466332601509E-1   -6.980082919807289E1
 7.269200000000000E9     2.516410304007375E-1   -6.994156568805815E1
 7.269225000000000E9     2.513276393616971E-1   -7.008219317000494E1
 7.269250000000000E9     2.510181654136469E-1   -7.022551655726524E1
 7.269275000000000E9     2.507140815356506E-1   -7.036961145815516E1
 7.269300000000000E9     2.504185838434818E-1   -7.051336164493712E1
 7.269325000000000E9     2.501233224478581E-1   -7.065911284355272E1
 7.269350000000000E9     2.498132821429750E-1   -7.080601097618892E1
 7.269375000000000E9     2.495163530840808E-1   -7.095249565835307E1
 7.269400000000000E9     2.492121792069059E-1   -7.110090312933237E1
 7.269425000000000E9     2.489194619833604E-1   -7.124865697635462E1
 7.269450000000000E9     2.486418940483479E-1   -7.139763291665997E1
 7.269475000000000E9     2.483667420587996E-1   -7.154705754050609E1
 7.269500000000000E9     2.480884746904005E-1   -7.169627516117512E1
 7.269525000000000E9     2.478327746925653E-1   -7.184394202896043E1
 7.269550000000000E9     2.475711720937550E-1   -7.199391896275095E1
 7.269575000000000E9     2.473093486154931E-1   -7.214369199665795E1
 7.269600000000000E9     2.470456666286892E-1   -7.229990262172946E1
 7.269625000000000E9     2.467958056262970E-1   -7.245484351866153E1
 7.269650000000000E9     2.465372380745141E-1   -7.260889841385084E1
 7.269675000000000E9     2.463029603677777E-1   -7.276373595810161E1
 7.269700000000000E9     2.460501064343778E-1   -7.291721656545211E1
 7.269725000000000E9     2.458155829855556E-1   -7.307472987767109E1
 7.269750000000000E9     2.455755435430957E-1   -7.322951104590338E1
 7.269775000000000E9     2.453452261905336E-1   -7.338634167844680E1
 7.269800000000000E9     2.451266911653551E-1   -7.354152513170111E1
 7.269825000000000E9     2.449224104639932E-1   -7.369877366486520E1
 7.269850000000000E9     2.447047693296846E-1   -7.385741774459692E1
 7.269875000000000E9     2.444955363736604E-1   -7.401955579470949E1
 7.269900000000000E9     2.442813297564870E-1   -7.418269329879747E1
 7.269925000000000E9     2.440726711037864E-1   -7.434727934499301E1
 7.269950000000000E9     2.438607871232112E-1   -7.450993220461275E1
 7.269975000000000E9     2.436600995933112E-1   -7.467273986555607E1
 7.270000000000000E9     2.434541716151865E-1   -7.483675019386308E1
 7.270025000000000E9     2.432642600290295E-1   -7.500244773175999E1
 7.270050000000000E9     2.430685688559386E-1   -7.516690309215070E1
 7.270075000000000E9     2.428945430088982E-1   -7.533069069336240E1
 7.270100000000000E9     2.427252261068430E-1   -7.549326160430769E1
 7.270125000000000E9     2.425670930901194E-1   -7.565831998843869E1
 7.270150000000000E9     2.423986740315400E-1   -7.582429105329194E1
 7.270175000000000E9     2.422434244525652E-1   -7.599128162878816E1
 7.270200000000000E9     2.420813753709468E-1   -7.616243683500032E1
 7.270225000000000E9     2.419265838392034E-1   -7.633587429397343E1
 7.270250000000000E9     2.417615257627194E-1   -7.650629833431286E1
 7.270275000000000E9     2.416143112428286E-1   -7.667501998580485E1
 7.270300000000000E9     2.414677217434310E-1   -7.684680432181274E1
 7.270325000000000E9     2.413260706613201E-1   -7.701593172047427E1
 7.270350000000000E9     2.412033172028943E-1   -7.718867483704621E1
 7.270375000000000E9     2.410628632531689E-1   -7.735727834807325E1
 7.270400000000000E9     2.409445480224499E-1   -7.752842471299664E1
 7.270425000000000E9     2.408251922043390E-1   -7.769723041289801E1
 7.270450000000000E9     2.407115355554060E-1   -7.786806085819813E1
 7.270475000000000E9     2.406022550354879E-1   -7.804382676874482E1
 7.270500000000000E9     2.404888694250773E-1   -7.822023261258403E1
 7.270525000000000E9     2.403684827649731E-1   -7.839562413065039E1
 7.270550000000000E9     2.402676678119426E-1   -7.857550916736594E1
 7.270575000000000E9     2.401526456078677E-1   -7.875436679729759E1
 7.270600000000000E9     2.400538211012425E-1   -7.893251844797146E1
 7.270625000000000E9     2.399587875148123E-1   -7.910885873859496E1
 7.270650000000000E9     2.398949067714629E-1   -7.928604621147146E1
 7.270675000000000E9     2.398064930932877E-1   -7.946351033615490E1
 7.270700000000000E9     2.397367958068026E-1   -7.964123520509574E1
 7.270725000000000E9     2.396775668385232E-1   -7.982218939111468E1
 7.270750000000000E9     2.395952860907330E-1   -8.000486942374987E1
 7.270775000000000E9     2.395379302684039E-1   -8.018735894093375E1
 7.270800000000000E9     2.394707805429633E-1   -8.037056170282862E1
 7.270825000000000E9     2.394017538552793E-1   -8.054958495823752E1
 7.270850000000000E9     2.393437400537824E-1   -8.073197362823674E1
 7.270875000000000E9     2.392934982175742E-1   -8.091438851743632E1
 7.270900000000000E9     2.392448761845216E-1   -8.109903162483953E1
 7.270925000000000E9     2.391970570858042E-1   -8.128090595727180E1
 7.270950000000000E9     2.391518072676778E-1   -8.146339284327668E1
 7.270975000000000E9     2.391266258286891E-1   -8.164975722863400E1
 7.271000000000000E9     2.390915501933939E-1   -8.183539526760291E1
 7.271025000000000E9     2.390543009234706E-1   -8.202171873602792E1
 7.271050000000000E9     2.390226456442668E-1   -8.220626402855662E1
 7.271075000000000E9     2.389858204994941E-1   -8.239639820167710E1
 7.271100000000000E9     2.389639861225205E-1   -8.258727124437067E1
 7.271125000000000E9     2.389350356819546E-1   -8.277807643598514E1
 7.271150000000000E9     2.389010377829986E-1   -8.296918045486316E1
 7.271175000000000E9     2.388856748925969E-1   -8.316195543219567E1
 7.271200000000000E9     2.388697066872593E-1   -8.335063866922670E1
 7.271225000000000E9     2.388669289540069E-1   -8.353826864645310E1
 7.271250000000000E9     2.388514073982645E-1   -8.372486053060871E1
 7.271275000000000E9     2.388539658226634E-1   -8.391513486439379E1
 7.271300000000000E9     2.388510676179742E-1   -8.411033957176748E1
 7.271325000000000E9     2.388553133565858E-1   -8.430309456301164E1
 7.271350000000000E9     2.388456422895600E-1   -8.450238818219069E1
 7.271375000000000E9     2.388451884880625E-1   -8.470034723815054E1
 7.271400000000000E9     2.388217862237103E-1   -8.489846940233750E1
 7.271425000000000E9     2.388253689918902E-1   -8.510095927347656E1
 7.271450000000000E9     2.388146060101844E-1   -8.529768984450749E1
 7.271475000000000E9     2.388049255842165E-1   -8.549812180531109E1
 7.271500000000000E9     2.387966627816109E-1   -8.569900329052714E1
 7.271525000000000E9     2.387995148707631E-1   -8.590025363470022E1
 7.271550000000000E9     2.387947038320956E-1   -8.609902501136709E1
 7.271575000000000E9     2.387941364260423E-1   -8.630270058343665E1
 7.271600000000000E9     2.387963733061451E-1   -8.650628552387502E1
 7.271625000000000E9     2.387904856418731E-1   -8.671461310099127E1
 7.271650000000000E9     2.387877802256508E-1   -8.692482934107626E1
 7.271675000000000E9     2.387786515431402E-1   -8.713934859823783E1
 7.271700000000000E9     2.387419350660509E-1   -8.735139769146598E1
 7.271725000000000E9     2.387134761207744E-1   -8.757076853153420E1
 7.271750000000000E9     2.386800897487749E-1   -8.778178681481826E1
 7.271775000000000E9     2.386462774721909E-1   -8.799548607849593E1
 7.271800000000000E9     2.385937602382101E-1   -8.821023854383024E1
 7.271825000000000E9     2.385476803084857E-1   -8.842776823584794E1
 7.271850000000000E9     2.384759075292276E-1   -8.864561818797556E1
 7.271875000000000E9     2.384063429791351E-1   -8.886651434240635E1
 7.271900000000000E9     2.383190453651561E-1   -8.908874813964955E1
 7.271925000000000E9     2.382254288891036E-1   -8.932062494386051E1
 7.271950000000000E9     2.381162728241367E-1   -8.955261092101567E1
 7.271975000000000E9     2.379898630660205E-1   -8.978554438728911E1
 7.272000000000000E9     2.378292312197567E-1   -9.001984644864669E1
 7.272025000000000E9     2.376594720994415E-1   -9.025732838847932E1
 7.272050000000000E9     2.374493912178332E-1   -9.049035946377256E1
 7.272075000000000E9     2.372370032594616E-1   -9.072488899931535E1
 7.272100000000000E9     2.369802840984775E-1   -9.096173689536474E1
 7.272125000000000E9     2.367015318885264E-1   -9.120087103563976E1
 7.272150000000000E9     2.363917462940112E-1   -9.144426784853395E1
 7.272175000000000E9     2.360534263390047E-1   -9.168693840820872E1
 7.272200000000000E9     2.356668338180516E-1   -9.193529498571191E1
 7.272225000000000E9     2.352405797790187E-1   -9.218736958304626E1
 7.272250000000000E9     2.347590738062328E-1   -9.244115077001810E1
 7.272275000000000E9     2.342274972034662E-1   -9.268813257088340E1
 7.272300000000000E9     2.336162311808049E-1   -9.293209232657777E1
 7.272325000000000E9     2.329560667528122E-1   -9.317758782420765E1
 7.272350000000000E9     2.322196105948368E-1   -9.341383490825169E1
 7.272375000000000E9     2.314206411601974E-1   -9.364080508859485E1
 7.272400000000000E9     2.305360384953064E-1   -9.386208922546139E1
 7.272425000000000E9     2.295490661328886E-1   -9.407096550077500E1
 7.272450000000000E9     2.284720483529357E-1   -9.426798316515348E1
 7.272475000000000E9     2.273006265704417E-1   -9.444486038501277E1
 7.272500000000000E9     2.260367540527978E-1   -9.460169217748613E1
 7.272525000000000E9     2.246694234066680E-1   -9.473436176593532E1
 7.272550000000000E9     2.232277280078542E-1   -9.483066361451135E1
 7.272575000000000E9     2.216726311843732E-1   -9.488975319491426E1
 7.272600000000000E9     2.200628124269877E-1   -9.489644195518459E1
 7.272625000000000E9     2.183721920691769E-1   -9.484514038926800E1
 7.272650000000000E9     2.166698200900607E-1   -9.472690319689032E1
 7.272675000000000E9     2.149841612597609E-1   -9.453999352356021E1
 7.272700000000000E9     2.133582397458293E-1   -9.427456885464861E1
 7.272725000000000E9     2.118424092255960E-1   -9.392822855143865E1
 7.272750000000000E9     2.104871530691263E-1   -9.350870516884068E1
 7.272775000000000E9     2.093710560669753E-1   -9.301921880132159E1
 7.272800000000000E9     2.085271610147660E-1   -9.246658541225328E1
 7.272825000000000E9     2.080044652502570E-1   -9.186594794762365E1
 7.272850000000000E9     2.078477283152933E-1   -9.123243600273986E1
 7.272875000000000E9     2.080637913075004E-1   -9.058700427765223E1
 7.272900000000000E9     2.086659029810351E-1   -8.995122900722122E1
 7.272925000000000E9     2.096371587656124E-1   -8.934796035631156E1
 7.272950000000000E9     2.109363563517788E-1   -8.879171708357548E1
 7.272975000000000E9     2.124915808013031E-1   -8.829614332432176E1
 7.273000000000000E9     2.142893540732804E-1   -8.786939514683972E1
 7.273025000000000E9     2.162433209194105E-1   -8.751878667254744E1
 7.273050000000000E9     2.183241456742497E-1   -8.724257079786379E1
 7.273075000000000E9     2.204489346996797E-1   -8.703939835979226E1
 7.273100000000000E9     2.226033969898164E-1   -8.690053684814950E1
 7.273125000000000E9     2.247367405199070E-1   -8.682060512545031E1
 7.273150000000000E9     2.268442935644165E-1   -8.679085531022723E1
 7.273175000000000E9     2.288788398739564E-1   -8.680827187070180E1
 7.273200000000000E9     2.308535235944619E-1   -8.685846130918495E1
 7.273225000000000E9     2.327358373123063E-1   -8.694103763314072E1
 7.273250000000000E9     2.345306077523242E-1   -8.704581279963703E1
 7.273275000000000E9     2.362573947846237E-1   -8.717423736783967E1
 7.273300000000000E9     2.378964280629221E-1   -8.731862654420618E1
 7.273325000000000E9     2.394538272115325E-1   -8.747523270589160E1
 7.273350000000000E9     2.409244944079500E-1   -8.764750975713447E1
 7.273375000000000E9     2.423297912850813E-1   -8.782712592627990E1
 7.273400000000000E9     2.436574889866233E-1   -8.801091965105508E1
 7.273425000000000E9     2.449194231833551E-1   -8.820008843453580E1
 7.273450000000000E9     2.461154395800039E-1   -8.838818075630506E1
 7.273475000000000E9     2.472567476422825E-1   -8.857785748762846E1
 7.273500000000000E9     2.483462692697197E-1   -8.876513655954386E1
 7.273525000000000E9     2.493858994036403E-1   -8.895294575412585E1
 7.273550000000000E9     2.503842074732984E-1   -8.914085965341877E1
 7.273575000000000E9     2.513380735955511E-1   -8.932540314653500E1
 7.273600000000000E9     2.522727949300533E-1   -8.951077731600004E1
 7.273625000000000E9     2.531650054956075E-1   -8.969452431602301E1
 7.273650000000000E9     2.540280634700108E-1   -8.987784223621883E1
 7.273675000000000E9     2.548614114094909E-1   -9.005672596767927E1
 7.273700000000000E9     2.556823188146325E-1   -9.023253379965185E1
 7.273725000000000E9     2.564618572526415E-1   -9.040633520952818E1
 7.273750000000000E9     2.572220521204987E-1   -9.057875679049405E1
 7.273775000000000E9     2.579674391145277E-1   -9.074840152721229E1
 7.273800000000000E9     2.586929186767916E-1   -9.091171043716682E1
 7.273825000000000E9     2.594015099197622E-1   -9.107472372169197E1
 7.273850000000000E9     2.600889346620874E-1   -9.123279583189917E1
 7.273875000000000E9     2.607593547159502E-1   -9.138917812896587E1
 7.273900000000000E9     2.614278628373308E-1   -9.153938427947104E1
 7.273925000000000E9     2.620744336974430E-1   -9.168938335434709E1
 7.273950000000000E9     2.627158376256309E-1   -9.183717818585734E1
 7.273975000000000E9     2.633531504810051E-1   -9.198629747488803E1
 7.274000000000000E9     2.639646293356105E-1   -9.213143523447150E1
 7.274025000000000E9     2.645868037348680E-1   -9.227561956959809E1
 7.274050000000000E9     2.651784345451936E-1   -9.241309321423940E1
 7.274075000000000E9     2.657748381281586E-1   -9.254933856814162E1
 7.274100000000000E9     2.663633863271751E-1   -9.268452729969603E1
 7.274125000000000E9     2.669508320949988E-1   -9.281599893968870E1
 7.274150000000000E9     2.675237898393472E-1   -9.294540018460273E1
 7.274175000000000E9     2.681100911226498E-1   -9.307202242567494E1
 7.274200000000000E9     2.686658756431359E-1   -9.319567098079715E1
 7.274225000000000E9     2.692470085669682E-1   -9.331870819519193E1
 7.274250000000000E9     2.698082618602468E-1   -9.344103159448392E1
 7.274275000000000E9     2.703652547807139E-1   -9.356298351304042E1
 7.274300000000000E9     2.709279529838335E-1   -9.368168254730107E1
 7.274325000000000E9     2.714783351592822E-1   -9.380090709730482E1
 7.274350000000000E9     2.720100251826262E-1   -9.391443214916499E1
 7.274375000000000E9     2.725569636481543E-1   -9.402658927296584E1
 7.274400000000000E9     2.730959920514687E-1   -9.413428400891706E1
 7.274425000000000E9     2.736364237759762E-1   -9.424189477655864E1
 7.274450000000000E9     2.741737088646569E-1   -9.434868056825887E1
 7.274475000000000E9     2.747175574791608E-1   -9.445168375919545E1
 7.274500000000000E9     2.752459935504892E-1   -9.455593760694735E1
 7.274525000000000E9     2.757778134752438E-1   -9.466066251640117E1
 7.274550000000000E9     2.763120306048201E-1   -9.476363834065583E1
 7.274575000000000E9     2.768337341651761E-1   -9.486333454988970E1
 7.274600000000000E9     2.773572942365941E-1   -9.496325368525667E1
 7.274625000000000E9     2.778697154271269E-1   -9.506193102978457E1
 7.274650000000000E9     2.783911227329827E-1   -9.515680500367874E1
 7.274675000000000E9     2.789146200134368E-1   -9.524902273590303E1
 7.274700000000000E9     2.794353188063775E-1   -9.534243979595016E1
 7.274725000000000E9     2.799427264050448E-1   -9.543311851380709E1
 7.274750000000000E9     2.804628928482246E-1   -9.551976018010004E1
 7.274775000000000E9     2.809901943995796E-1   -9.560670323642709E1
 7.274800000000000E9     2.815126811928773E-1   -9.569239110767339E1
 7.274825000000000E9     2.820175212858410E-1   -9.577743906231993E1
 7.274850000000000E9     2.825392946184073E-1   -9.586096234613503E1
 7.274875000000000E9     2.830535265020646E-1   -9.594533893556064E1
 7.274900000000000E9     2.835778176604075E-1   -9.602907702459164E1
 7.274925000000000E9     2.840902911775401E-1   -9.611071610486225E1
 7.274950000000000E9     2.845961978557303E-1   -9.618987825483893E1
 7.274975000000000E9     2.851067036826644E-1   -9.626567581526764E1
 7.275000000000000E9     2.856211846116873E-1   -9.634348679011327E1
 7.275025000000000E9     2.861331386258992E-1   -9.641759978574369E1
 7.275050000000000E9     2.866439773746455E-1   -9.649242349445726E1
 7.275075000000000E9     2.871476892492090E-1   -9.656582541203611E1
 7.275100000000000E9     2.876607256060267E-1   -9.663898151713455E1
 7.275125000000000E9     2.881778854649767E-1   -9.670984001537175E1
 7.275150000000000E9     2.886811680390492E-1   -9.678355986645285E1
 7.275175000000000E9     2.892006941942082E-1   -9.685257321797580E1
 7.275200000000000E9     2.897044250914516E-1   -9.692240099214895E1
 7.275225000000000E9     2.902202229787524E-1   -9.699165265951449E1
 7.275250000000000E9     2.907220126623294E-1   -9.705938760309401E1
 7.275275000000000E9     2.912315553054078E-1   -9.712553556938815E1
 7.275300000000000E9     2.917313023541769E-1   -9.718647910872271E1
 7.275325000000000E9     2.922461393666979E-1   -9.724807278160856E1
 7.275350000000000E9     2.927587409264401E-1   -9.731077974944884E1
 7.275375000000000E9     2.932640239084748E-1   -9.737174176785234E1
 7.275400000000000E9     2.937677925050359E-1   -9.743227457677770E1
 7.275425000000000E9     2.942761732228795E-1   -9.749291631760940E1
 7.275450000000000E9     2.947823766383288E-1   -9.755206316156371E1
 7.275475000000000E9     2.952977935544840E-1   -9.761005087146891E1
 7.275500000000000E9     2.958010051598430E-1   -9.766721150473721E1
 7.275525000000000E9     2.963031191048344E-1   -9.772415866822017E1
 7.275550000000000E9     2.968113958909848E-1   -9.778081352973858E1
 7.275575000000000E9     2.973038334901952E-1   -9.783424100330217E1
 7.275600000000000E9     2.978141359350195E-1   -9.788448360397337E1
 7.275625000000000E9     2.983060361866162E-1   -9.793728426619990E1
 7.275650000000000E9     2.988177744221502E-1   -9.798836928425021E1
 7.275675000000000E9     2.993174668569508E-1   -9.803959895169784E1
 7.275700000000000E9     2.998385355794723E-1   -9.808980304678828E1
 7.275725000000000E9     3.003433669977472E-1   -9.814148980323002E1
 7.275750000000000E9     3.008534974748603E-1   -9.819241138492033E1
 7.275775000000000E9     3.013511397712452E-1   -9.824103229639546E1
 7.275800000000000E9     3.018613208446691E-1   -9.829024984835168E1
 7.275825000000000E9     3.023551129611988E-1   -9.833835412040200E1
 7.275850000000000E9     3.028591692627959E-1   -9.838272024223676E1
 7.275875000000000E9     3.033613136743538E-1   -9.842501205683524E1
 7.275900000000000E9     3.038676761125325E-1   -9.846881383426191E1
 7.275925000000000E9     3.043653527849006E-1   -9.851028969439884E1
 7.275950000000000E9     3.048785495664266E-1   -9.855171083210510E1
 7.275975000000000E9     3.053781585607674E-1   -9.859308953089898E1
 7.276000000000000E9     3.058806586627276E-1   -9.863471855057318E1
 7.276025000000000E9     3.063793102650614E-1   -9.867364873481527E1
 7.276050000000000E9     3.068900166775996E-1   -9.871480692261450E1
 7.276075000000000E9     3.073926849702616E-1   -9.875384173941107E1
 7.276100000000000E9     3.078883030790390E-1   -9.879308578493844E1
 7.276125000000000E9     3.083965754661008E-1   -9.882958319911988E1
 7.276150000000000E9     3.088846547025770E-1   -9.886536419589576E1
 7.276175000000000E9     3.093947389939610E-1   -9.890182521372247E1
 7.276200000000000E9     3.098859485152368E-1   -9.893756159924688E1
 7.276225000000000E9     3.103831643411213E-1   -9.897092428734398E1
 7.276250000000000E9     3.108872010901430E-1   -9.900597703512666E1
 7.276275000000000E9     3.113863511087677E-1   -9.904157524193128E1
 7.276300000000000E9     3.118891284790916E-1   -9.907440397629659E1
 7.276325000000000E9     3.123784648876254E-1   -9.911008411859947E1
 7.276350000000000E9     3.128667105097744E-1   -9.914175994189048E1
 7.276375000000000E9     3.133556854960098E-1   -9.917326477655240E1
 7.276400000000000E9     3.138421951555390E-1   -9.920144299202130E1
 7.276425000000000E9     3.143261551489036E-1   -9.923004578236322E1
 7.276450000000000E9     3.148307576111030E-1   -9.925685289809061E1
 7.276475000000000E9     3.153322624571597E-1   -9.928538196107721E1
 7.276500000000000E9     3.158282038333874E-1   -9.931259989202567E1
 7.276525000000000E9     3.163238005198022E-1   -9.934007141724885E1
 7.276550000000000E9     3.168186585462405E-1   -9.936556863899490E1
 7.276575000000000E9     3.173183575568947E-1   -9.939113614808493E1
 7.276600000000000E9     3.178069448207414E-1   -9.941813979588477E1
 7.276625000000000E9     3.182995894412348E-1   -9.944267170988876E1
 7.276650000000000E9     3.187924549989710E-1   -9.946882955119268E1
 7.276675000000000E9     3.192929060807474E-1   -9.949258971435566E1
 7.276700000000000E9     3.197747048292461E-1   -9.951512909477894E1
 7.276725000000000E9     3.202630637828321E-1   -9.953680409400100E1
 7.276750000000000E9     3.207577059325936E-1   -9.955983524565065E1
 7.276775000000000E9     3.212508016014334E-1   -9.958175541900188E1
 7.276800000000000E9     3.217393038832982E-1   -9.960211612593953E1
 7.276825000000000E9     3.222203997692820E-1   -9.962082575625730E1
 7.276850000000000E9     3.227110885023839E-1   -9.964177901300167E1
 7.276875000000000E9     3.231880976215633E-1   -9.966134579059423E1
 7.276900000000000E9     3.236824422273102E-1   -9.968149895653531E1
 7.276925000000000E9     3.241694152951868E-1   -9.970267997673068E1
 7.276950000000000E9     3.246505142253477E-1   -9.971983031668297E1
 7.276975000000000E9     3.251422069605493E-1   -9.973762855539795E1
 7.277000000000000E9     3.256183941436413E-1   -9.975328104208316E1
 7.277025000000000E9     3.260939774916166E-1   -9.976778498411930E1
 7.277050000000000E9     3.265752617633957E-1   -9.978285808470281E1
 7.277075000000000E9     3.270672348350644E-1   -9.979931164996597E1
 7.277100000000000E9     3.275588057997374E-1   -9.981360593515419E1
 7.277125000000000E9     3.280528443909951E-1   -9.982879719446223E1
 7.277150000000000E9     3.285415122761154E-1   -9.984424890807622E1
 7.277175000000000E9     3.290171678577720E-1   -9.985730743041454E1
 7.277200000000000E9     3.295008574109817E-1   -9.987256176328975E1
 7.277225000000000E9     3.299788385075081E-1   -9.988575697522126E1
 7.277250000000000E9     3.304570107442497E-1   -9.989798391013547E1
 7.277275000000000E9     3.309298375422601E-1   -9.990759195049093E1
 7.277300000000000E9     3.314141814521555E-1   -9.991760694154880E1
 7.277325000000000E9     3.318862302895964E-1   -9.992888195145814E1
 7.277350000000000E9     3.323745129029295E-1   -9.993814320789943E1
 7.277375000000000E9     3.328513448616874E-1   -9.994636145531645E1
 7.277400000000000E9     3.333217689640679E-1   -9.995462997712417E1
 7.277425000000000E9     3.338008441478429E-1   -9.996311698403524E1
 7.277450000000000E9     3.342701884072932E-1   -9.997255559915672E1
 7.277475000000000E9     3.347408925419982E-1   -9.998027230576724E1
 7.277500000000000E9     3.352111115587455E-1   -9.998858850852386E1
 7.277525000000000E9     3.356871923217373E-1   -9.999557074380682E1
 7.277550000000000E9     3.361555283140478E-1   -1.000025455899252E2
 7.277575000000000E9     3.366244976730142E-1   -1.000082966225091E2
 7.277600000000000E9     3.370934344323624E-1   -1.000127704930093E2
 7.277625000000000E9     3.375577998520129E-1   -1.000183447737517E2
 7.277650000000000E9     3.380302345024949E-1   -1.000232340516427E2
 7.277675000000000E9     3.384868237656601E-1   -1.000269179076995E2
 7.277700000000000E9     3.389659390964709E-1   -1.000316493158479E2
 7.277725000000000E9     3.394223896389658E-1   -1.000353464472121E2
 7.277750000000000E9     3.398882705127528E-1   -1.000382078765991E2
 7.277775000000000E9     3.403444839841365E-1   -1.000428670667025E2
 7.277800000000000E9     3.408009652153948E-1   -1.000447607387261E2
 7.277825000000000E9     3.412601810584059E-1   -1.000465350932694E2
 7.277850000000000E9     3.417191393527519E-1   -1.000480858855754E2
 7.277875000000000E9     3.421691136053017E-1   -1.000488397544697E2
 7.277900000000000E9     3.426247626647118E-1   -1.000494460969447E2
 7.277925000000000E9     3.430943962904021E-1   -1.000486029455609E2
 7.277950000000000E9     3.435466147184710E-1   -1.000509388336690E2
 7.277975000000000E9     3.440185687652616E-1   -1.000508612691516E2
 7.278000000000000E9     3.444702195276284E-1   -1.000486236595767E2
 7.278025000000000E9     3.449367891695652E-1   -1.000483224690710E2
 7.278050000000000E9     3.453884825559357E-1   -1.000468038086286E2
 7.278075000000000E9     3.458415686203107E-1   -1.000450088391438E2
 7.278100000000000E9     3.462886963796771E-1   -1.000414484830853E2
 7.278125000000000E9     3.467454838087831E-1   -1.000399251196931E2
 7.278150000000000E9     3.471986099146003E-1   -1.000394721627235E2
 7.278175000000000E9     3.476477772260430E-1   -1.000364862650191E2
 7.278200000000000E9     3.481046683559326E-1   -1.000318633391266E2
 7.278225000000000E9     3.485439989604891E-1   -1.000275307753207E2
 7.278250000000000E9     3.489887436104398E-1   -1.000225835023075E2
 7.278275000000000E9     3.494276990071339E-1   -1.000174938306385E2
 7.278300000000000E9     3.498754505442423E-1   -1.000133512845401E2
 7.278325000000000E9     3.503080406682961E-1   -1.000069137385754E2
 7.278350000000000E9     3.507549836619593E-1   -1.000013920044423E2
 7.278375000000000E9     3.511962878491134E-1   -9.999473101314005E1
 7.278400000000000E9     3.516403967192593E-1   -9.998805681154052E1
 7.278425000000000E9     3.520770368173738E-1   -9.998343252270527E1
 7.278450000000000E9     3.525015066754659E-1   -9.997589285821820E1
 7.278475000000000E9     3.529452123879913E-1   -9.996897408272332E1
 7.278500000000000E9     3.533819866411333E-1   -9.996040459374537E1
 7.278525000000000E9     3.538291145745642E-1   -9.995067558026403E1
 7.278550000000000E9     3.542512614098602E-1   -9.994225344691553E1
 7.278575000000000E9     3.546978845516813E-1   -9.993342121991385E1
 7.278600000000000E9     3.551208275615735E-1   -9.992295597069275E1
 7.278625000000000E9     3.555582536630633E-1   -9.991563902610834E1
 7.278650000000000E9     3.559945973267956E-1   -9.990845661282194E1
 7.278675000000000E9     3.564298305073401E-1   -9.989858699600897E1
 7.278700000000000E9     3.568575215765775E-1   -9.989025702844518E1
 7.278725000000000E9     3.572820832074488E-1   -9.988067460260393E1
 7.278750000000000E9     3.577169403825730E-1   -9.986995053662886E1
 7.278775000000000E9     3.581465586577746E-1   -9.985957931316463E1
 7.278800000000000E9     3.585841243635006E-1   -9.984862196956887E1
 7.278825000000000E9     3.590021109076763E-1   -9.983567073916163E1
 7.278850000000000E9     3.594367798502885E-1   -9.982264884173813E1
 7.278875000000000E9     3.598536808726948E-1   -9.980957834875430E1
 7.278900000000000E9     3.602792311587418E-1   -9.979800415152812E1
 7.278925000000000E9     3.606958052796229E-1   -9.978753706275870E1
 7.278950000000000E9     3.611180447109814E-1   -9.977407531298606E1
 7.278975000000000E9     3.615282909499221E-1   -9.976132766745971E1
 7.279000000000000E9     3.619575124990265E-1   -9.974597036138577E1
 7.279025000000000E9     3.623647799855034E-1   -9.973179050250867E1
 7.279050000000000E9     3.628001493758989E-1   -9.971701736152951E1
 7.279075000000000E9     3.632117635517423E-1   -9.970323129259623E1
 7.279100000000000E9     3.636222675764170E-1   -9.968711274590100E1
 7.279125000000000E9     3.640261950175358E-1   -9.967149330567666E1
 7.279150000000000E9     3.644489526392021E-1   -9.965574487795924E1
 7.279175000000000E9     3.648535250230810E-1   -9.963941344515264E1
 7.279200000000000E9     3.652600345294419E-1   -9.962571105479212E1
 7.279225000000000E9     3.656795887553231E-1   -9.961015612121254E1
 7.279250000000000E9     3.660777094722822E-1   -9.959431038435086E1
 7.279275000000000E9     3.664745797280274E-1   -9.957880230708116E1
 7.279300000000000E9     3.668844454474917E-1   -9.956363835383600E1
 7.279325000000000E9     3.673001594464065E-1   -9.954652848928097E1
 7.279350000000000E9     3.677004755618586E-1   -9.953125662791948E1
 7.279375000000000E9     3.681105849232790E-1   -9.951392353851583E1
 7.279400000000000E9     3.685231117466317E-1   -9.949505439581823E1
 7.279425000000000E9     3.689083282155229E-1   -9.947574643358202E1
 7.279450000000000E9     3.693184561892530E-1   -9.945697154662867E1
 7.279475000000000E9     3.697058934863230E-1   -9.944022822843371E1
 7.279500000000000E9     3.700992823739483E-1   -9.942152314215217E1
 7.279525000000000E9     3.704997091608637E-1   -9.940418308399299E1
 7.279550000000000E9     3.708945647679266E-1   -9.938527856774471E1
 7.279575000000000E9     3.712899391950063E-1   -9.936876468321083E1
 7.279600000000000E9     3.716840598840311E-1   -9.934948576836541E1
 7.279625000000000E9     3.720806679761431E-1   -9.932778404876713E1
 7.279650000000000E9     3.724755529534790E-1   -9.930831200054094E1
 7.279675000000000E9     3.728685862501072E-1   -9.928875625610850E1
 7.279700000000000E9     3.732425617426995E-1   -9.926626755009316E1
 7.279725000000000E9     3.736327519943238E-1   -9.924418732288821E1
 7.279750000000000E9     3.740215422786235E-1   -9.922290363473861E1
 7.279775000000000E9     3.743993703784146E-1   -9.920213378155211E1
 7.279800000000000E9     3.747943073321675E-1   -9.918210078791004E1
 7.279825000000000E9     3.751692474162837E-1   -9.916121467945341E1
 7.279850000000000E9     3.755659332439591E-1   -9.914004656861485E1
 7.279875000000000E9     3.759496086399124E-1   -9.911851989932092E1
 7.279900000000000E9     3.763317703483522E-1   -9.909668509621650E1
 7.279925000000000E9     3.767268296678333E-1   -9.907359254915070E1
 7.279950000000000E9     3.771084627044604E-1   -9.905192676121094E1
 7.279975000000000E9     3.774877866611314E-1   -9.902750764866960E1
 7.280000000000000E9     3.778664077914233E-1   -9.900518876220650E1
 7.280025000000000E9     3.782362762602612E-1   -9.898220365592553E1
 7.280050000000000E9     3.786244146517486E-1   -9.895973960566684E1
 7.280075000000000E9     3.789987570589231E-1   -9.893582594001809E1
 7.280100000000000E9     3.793818826623114E-1   -9.891440330028081E1
 7.280125000000000E9     3.797527170664258E-1   -9.889338936027573E1
 7.280150000000000E9     3.801200311563058E-1   -9.887162017204211E1
 7.280175000000000E9     3.804831844868238E-1   -9.884837079659590E1
 7.280200000000000E9     3.808599346566629E-1   -9.882405841541214E1
 7.280225000000000E9     3.812352054925841E-1   -9.879917966106984E1
 7.280250000000000E9     3.816008134954821E-1   -9.877343160399965E1
 7.280275000000000E9     3.819566520103743E-1   -9.874677263384754E1
 7.280300000000000E9     3.823185521771867E-1   -9.872140659546082E1
 7.280325000000000E9     3.826837419407117E-1   -9.869571262570692E1
 7.280350000000000E9     3.830471722020465E-1   -9.866993773419739E1
 7.280375000000000E9     3.834185596360509E-1   -9.864568308799662E1
 7.280400000000000E9     3.837765455529447E-1   -9.862034316485007E1
 7.280425000000000E9     3.841394727277904E-1   -9.859500409220865E1
 7.280450000000000E9     3.845095492927760E-1   -9.856781106472799E1
 7.280475000000000E9     3.848591719443516E-1   -9.854097708901298E1
 7.280500000000000E9     3.852172546894775E-1   -9.851308774884916E1
 7.280525000000000E9     3.855631760289207E-1   -9.848578083750866E1
 7.280550000000000E9     3.859143381819062E-1   -9.845792190951202E1
 7.280575000000000E9     3.862638686043254E-1   -9.843073015197682E1
 7.280600000000000E9     3.866240391460350E-1   -9.840350635021628E1
 7.280625000000000E9     3.869729132731728E-1   -9.837506301186826E1
 7.280650000000000E9     3.873241407225791E-1   -9.834901408765494E1
 7.280675000000000E9     3.876766394916311E-1   -9.832112754096065E1
 7.280700000000000E9     3.879852478570770E-1   -9.829332303181560E1
 7.280725000000000E9     3.883171329486319E-1   -9.826778824834220E1
 7.280750000000000E9     3.886511481399975E-1   -9.824002285343384E1
 7.280775000000000E9     3.889992490852905E-1   -9.821141779087770E1
 7.280800000000000E9     3.893351148449934E-1   -9.818365904941756E1
 7.280825000000000E9     3.896844352618607E-1   -9.815525216019627E1
 7.280850000000000E9     3.900109898958176E-1   -9.812504362007959E1
 7.280875000000000E9     3.903529000324671E-1   -9.809534919573385E1
 7.280900000000000E9     3.906895147049536E-1   -9.806727114865615E1
 7.280925000000000E9     3.910299929636899E-1   -9.803825854264846E1
 7.280950000000000E9     3.913698558115110E-1   -9.801002791180657E1
 7.280975000000000E9     3.917091093625737E-1   -9.798146595333557E1
 7.281000000000000E9     3.920608396833665E-1   -9.795445198687727E1
 7.281025000000000E9     3.924006543860434E-1   -9.792507976365567E1
 7.281050000000000E9     3.927379995973043E-1   -9.789668308638238E1
 7.281075000000000E9     3.930596468377174E-1   -9.786685341417454E1
 7.281100000000000E9     3.933836108823324E-1   -9.783335555771082E1
 7.281125000000000E9     3.937135038909540E-1   -9.780218127499394E1
 7.281150000000000E9     3.940401830563824E-1   -9.776906981268367E1
 7.281175000000000E9     3.943641277548807E-1   -9.773841281113422E1
 7.281200000000000E9     3.946927236637269E-1   -9.770682836564396E1
 7.281225000000000E9     3.950211192310627E-1   -9.767620015406180E1
 7.281250000000000E9     3.953557841972946E-1   -9.764406226193586E1
 7.281275000000000E9     3.956819162128062E-1   -9.761400583411005E1
 7.281300000000000E9     3.960184193829480E-1   -9.758295041471216E1
 7.281325000000000E9     3.963339465232391E-1   -9.755204881274641E1
 7.281350000000000E9     3.966541564084692E-1   -9.752023715764051E1
 7.281375000000000E9     3.969747362418660E-1   -9.748773586008478E1
 7.281400000000000E9     3.972948747693945E-1   -9.745561506096196E1
 7.281425000000000E9     3.976100423372672E-1   -9.742359270688912E1
 7.281450000000000E9     3.979400641863856E-1   -9.739174084059478E1
 7.281475000000000E9     3.982572852427742E-1   -9.735923234335878E1
 7.281500000000000E9     3.985724218540487E-1   -9.732893301848857E1
 7.281525000000000E9     3.988947424452062E-1   -9.729832110551085E1
 7.281550000000000E9     3.992034371373517E-1   -9.726768249238214E1
 7.281575000000000E9     3.995266135993981E-1   -9.723473423513676E1
 7.281600000000000E9     3.998152249180706E-1   -9.720330227765336E1
 7.281625000000000E9     4.001237685292402E-1   -9.716958522946798E1
 7.281650000000000E9     4.004297992044069E-1   -9.713501322636068E1
 7.281675000000000E9     4.007403216846477E-1   -9.710196226356574E1
 7.281700000000000E9     4.010381110258353E-1   -9.706756276350210E1
 7.281725000000000E9     4.013497035422920E-1   -9.703384374099571E1
 7.281750000000000E9     4.016551799948558E-1   -9.699928500832145E1
 7.281775000000000E9     4.019655525589346E-1   -9.696724595461612E1
 7.281800000000000E9     4.022669263142232E-1   -9.693376714216849E1
 7.281825000000000E9     4.025750946750776E-1   -9.690027719117097E1
 7.281850000000000E9     4.028751977549981E-1   -9.686639285785776E1
 7.281875000000000E9     4.031868819185184E-1   -9.683505296419473E1
 7.281900000000000E9     4.034834246279780E-1   -9.679927198115685E1
 7.281925000000000E9     4.037767964694125E-1   -9.676590682979358E1
 7.281950000000000E9     4.040758105861757E-1   -9.673070706578970E1
 7.281975000000000E9     4.043634216231547E-1   -9.669522320683855E1
 7.282000000000000E9     4.046606830998362E-1   -9.665991811853402E1
 7.282025000000000E9     4.049521460718886E-1   -9.662373307920190E1
 7.282050000000000E9     4.052550170730370E-1   -9.658905128252829E1
 7.282075000000000E9     4.055521019526381E-1   -9.655427457162226E1
 7.282100000000000E9     4.058519245496618E-1   -9.652052125474302E1
 7.282125000000000E9     4.061394769746808E-1   -9.648657148415316E1
 7.282150000000000E9     4.064317324374331E-1   -9.645294190690602E1
 7.282175000000000E9     4.067076543025899E-1   -9.641911103005387E1
 7.282200000000000E9     4.069900179563267E-1   -9.638412191707305E1
 7.282225000000000E9     4.072723574435911E-1   -9.634902859683714E1
 7.282250000000000E9     4.075513600732996E-1   -9.631143302411688E1
 7.282275000000000E9     4.078386998950611E-1   -9.627507836986894E1
 7.282300000000000E9     4.081202510761265E-1   -9.623785625055041E1
 7.282325000000000E9     4.083912226844707E-1   -9.620156160163319E1
 7.282350000000000E9     4.086685948905054E-1   -9.616582762943933E1
 7.282375000000000E9     4.089561002059381E-1   -9.613033973108487E1
 7.282400000000000E9     4.092519702035330E-1   -9.609435675173752E1
 7.282425000000000E9     4.095356579853981E-1   -9.605834021095269E1
 7.282450000000000E9     4.098224250783732E-1   -9.602251355883553E1
 7.282475000000000E9     4.100320501139886E-1   -9.599272022715110E1
 7.282500000000000E9     4.103179688319008E-1   -9.595443983232819E1
 7.282525000000000E9     4.105971847680249E-1   -9.591811457972365E1
 7.282550000000000E9     4.108466700399985E-1   -9.587854280871400E1
 7.282575000000000E9     4.111316358809508E-1   -9.584022391608320E1
 7.282600000000000E9     4.113956335725044E-1   -9.580237915982646E1
 7.282625000000000E9     4.116761191133175E-1   -9.576332451974550E1
 7.282650000000000E9     4.119640965960116E-1   -9.572579132672259E1
 7.282675000000000E9     4.122299158549767E-1   -9.568948071407952E1
 7.282700000000000E9     4.125002637819969E-1   -9.565231220048366E1
 7.282725000000000E9     4.127848684117657E-1   -9.561647916954423E1
 7.282750000000000E9     4.130518806098403E-1   -9.557895614926204E1
 7.282775000000000E9     4.133162846059800E-1   -9.554171692333202E1
 7.282800000000000E9     4.135701854722043E-1   -9.550475203370820E1
 7.282825000000000E9     4.138297603967838E-1   -9.546673400247583E1
 7.282850000000000E9     4.140861235680755E-1   -9.542802001739614E1
 7.282875000000000E9     4.143325527798395E-1   -9.538984530264945E1
 7.282900000000000E9     4.146015126885880E-1   -9.535089347224994E1
 7.282925000000000E9     4.148587964695328E-1   -9.531350978408354E1
 7.282950000000000E9     4.151314200905784E-1   -9.527599900614644E1
 7.282975000000000E9     4.154061658155558E-1   -9.524023922716519E1
 7.283000000000000E9     4.156757396735228E-1   -9.520122670118789E1
 7.283025000000000E9     4.159400523320542E-1   -9.516494037977894E1
 7.283050000000000E9     4.162090753451964E-1   -9.512570102394422E1
 7.283075000000000E9     4.164578309597270E-1   -9.508630095505974E1
 7.283100000000000E9     4.167043870181833E-1   -9.504664362219827E1
 7.283125000000000E9     4.169592811222420E-1   -9.500765543335480E1
 7.283150000000000E9     4.172175879311554E-1   -9.496821960868888E1
 7.283175000000000E9     4.174508041259761E-1   -9.492685474477486E1
 7.283200000000000E9     4.177066817081115E-1   -9.488752516857150E1
 7.283225000000000E9     4.179535158026043E-1   -9.485043273713902E1
 7.283250000000000E9     4.182105234856169E-1   -9.481098884732187E1
 7.283275000000000E9     4.184673512218981E-1   -9.477263271223518E1
 7.283300000000000E9     4.187203800466914E-1   -9.473440228643628E1
 7.283325000000000E9     4.189728515016839E-1   -9.469633041598810E1
 7.283350000000000E9     4.192194032977342E-1   -9.465813452663832E1
 7.283375000000000E9     4.194661591520388E-1   -9.461753693772229E1
 7.283400000000000E9     4.197150939918510E-1   -9.457696529299086E1
 7.283425000000000E9     4.199661399419655E-1   -9.453551645411251E1
 7.283450000000000E9     4.201981306921801E-1   -9.449546671037393E1
 7.283475000000000E9     4.204116272996856E-1   -9.445420175533201E1
 7.283500000000000E9     4.206241070995103E-1   -9.441451641838886E1
 7.283525000000000E9     4.208622825857795E-1   -9.437544536106608E1
 7.283550000000000E9     4.211022777156348E-1   -9.433511942334003E1
 7.283575000000000E9     4.213545246986699E-1   -9.429635460133436E1
 7.283600000000000E9     4.216064334319947E-1   -9.425830174766638E1
 7.283625000000000E9     4.218485994741599E-1   -9.421977271330790E1
 7.283650000000000E9     4.220834316228545E-1   -9.417931695264085E1
 7.283675000000000E9     4.223150099207680E-1   -9.413950695794425E1
 7.283700000000000E9     4.225411928552036E-1   -9.409829969851538E1
 7.283725000000000E9     4.227585053228832E-1   -9.405778462851644E1
 7.283750000000000E9     4.230051894009770E-1   -9.401595059282268E1
 7.283775000000000E9     4.232453540890841E-1   -9.397467191817354E1
 7.283800000000000E9     4.234820850827348E-1   -9.393393925119021E1
 7.283825000000000E9     4.237271054370528E-1   -9.389360491102161E1
 7.283850000000000E9     4.239610695152825E-1   -9.385358143226138E1
 7.283875000000000E9     4.242064927389281E-1   -9.381247142093024E1
 7.283900000000000E9     4.244487093988293E-1   -9.377445685020317E1
 7.283925000000000E9     4.246848622126164E-1   -9.373416491761493E1
 7.283950000000000E9     4.249012219564307E-1   -9.369347287305489E1
 7.283975000000000E9     4.251083625372126E-1   -9.365286478189606E1
 7.284000000000000E9     4.253406319854899E-1   -9.360980816391158E1
 7.284025000000000E9     4.255638956267924E-1   -9.356851665308753E1
 7.284050000000000E9     4.258006032783057E-1   -9.352490689308515E1
 7.284075000000000E9     4.260269840631845E-1   -9.348382647076127E1
 7.284100000000000E9     4.262431305336958E-1   -9.344194711236597E1
 7.284125000000000E9     4.264644703309350E-1   -9.340017536766668E1
 7.284150000000000E9     4.266950085774684E-1   -9.336050733720531E1
 7.284175000000000E9     4.269377297409069E-1   -9.331983451468002E1
 7.284200000000000E9     4.271668878606028E-1   -9.327844612536748E1
 7.284225000000000E9     4.273728324838569E-1   -9.323967138805527E1
 7.284250000000000E9     4.275922329276446E-1   -9.319811221001652E1
 7.284275000000000E9     4.278043559085701E-1   -9.315589851831788E1
 7.284300000000000E9     4.279984600961460E-1   -9.311343208572380E1
 7.284325000000000E9     4.282297435963712E-1   -9.307067291501146E1
 7.284350000000000E9     4.284332652379205E-1   -9.302721472375534E1
 7.284375000000000E9     4.286439094938093E-1   -9.298403920261724E1
 7.284400000000000E9     4.288577512110378E-1   -9.294348261286063E1
 7.284425000000000E9     4.290945685351685E-1   -9.290207909418682E1
 7.284450000000000E9     4.293189104102383E-1   -9.286016589856817E1
 7.284475000000000E9     4.295144167197570E-1   -9.281935518583430E1
 7.284500000000000E9     4.297247551283278E-1   -9.277558240716475E1
 7.284525000000000E9     4.299324943622597E-1   -9.273501689730280E1
 7.284550000000000E9     4.301428628516836E-1   -9.269015896960940E1
 7.284575000000000E9     4.303616447913294E-1   -9.264795200956000E1
 7.284600000000000E9     4.305612004984754E-1   -9.260375809351255E1
 7.284625000000000E9     4.307704838643423E-1   -9.256088170630781E1
 7.284650000000000E9     4.309769799776581E-1   -9.251696009778090E1
 7.284675000000000E9     4.311579725163645E-1   -9.247569692620472E1
 7.284700000000000E9     4.313792909537210E-1   -9.243267229201157E1
 7.284725000000000E9     4.315647685066181E-1   -9.239013966289276E1
 7.284750000000000E9     4.317715198524740E-1   -9.234999296185777E1
 7.284775000000000E9     4.319817310643486E-1   -9.230839455097725E1
 7.284800000000000E9     4.321756157209345E-1   -9.226733188682252E1
 7.284825000000000E9     4.323846914944467E-1   -9.222247660322880E1
 7.284850000000000E9     4.325872242100435E-1   -9.218032889087029E1
 7.284875000000000E9     4.327791388319146E-1   -9.213762447251356E1
 7.284900000000000E9     4.329880087156459E-1   -9.209359954260910E1
 7.284925000000000E9     4.331773229495746E-1   -9.204883096381229E1
 7.284950000000000E9     4.333734984715100E-1   -9.200402756505594E1
 7.284975000000000E9     4.335527733759025E-1   -9.196221025026679E1
 7.285000000000000E9     4.337525474503558E-1   -9.191963592503791E1
 7.285025000000000E9     4.339485648717343E-1   -9.187733949442274E1
 7.285050000000000E9     4.341453317198314E-1   -9.183668146816052E1
 7.285075000000000E9     4.343369036098699E-1   -9.179388091687883E1
 7.285100000000000E9     4.345330759700972E-1   -9.175177298697203E1
 7.285125000000000E9     4.347150679669862E-1   -9.170922981657860E1
 7.285150000000000E9     4.349106257407389E-1   -9.166445464928110E1
 7.285175000000000E9     4.351046074522960E-1   -9.162102946791582E1
 7.285200000000000E9     4.352953952436281E-1   -9.157448796007908E1
 7.285225000000000E9     4.354612715331260E-1   -9.153118359037593E1
 7.285250000000000E9     4.356624769915076E-1   -9.148550756348713E1
 7.285275000000000E9     4.358499839400293E-1   -9.144147849604499E1
 7.285300000000000E9     4.360323656154044E-1   -9.139815437828136E1
 7.285325000000000E9     4.362305695338777E-1   -9.135672780597055E1
 7.285350000000000E9     4.364008522119474E-1   -9.131404322003745E1
 7.285375000000000E9     4.365997549526621E-1   -9.126962789799249E1
 7.285400000000000E9     4.367765686603377E-1   -9.122688394029255E1
 7.285425000000000E9     4.369501464829583E-1   -9.118304944195512E1
 7.285450000000000E9     4.371532121133062E-1   -9.113682389026741E1
 7.285475000000000E9     4.373216492226430E-1   -9.109148702641203E1
 7.285500000000000E9     4.375007501065702E-1   -9.104680275251809E1
 7.285525000000000E9     4.376731589434313E-1   -9.100094548025456E1
 7.285550000000000E9     4.378372917879567E-1   -9.095913289278515E1
 7.285575000000000E9     4.380123967252512E-1   -9.091595308480548E1
 7.285600000000000E9     4.382063426530545E-1   -9.087260297086112E1
 7.285625000000000E9     4.383744088863885E-1   -9.083132310594327E1
 7.285650000000000E9     4.385547369177912E-1   -9.078842741725988E1
 7.285675000000000E9     4.387419708797495E-1   -9.074445481526323E1
 7.285700000000000E9     4.389096128570335E-1   -9.069937724654528E1
 7.285725000000000E9     4.390945631818287E-1   -9.065670063778296E1
 7.285750000000000E9     4.392561078699201E-1   -9.061148348914995E1
 7.285775000000000E9     4.394280861050027E-1   -9.056520617624001E1
 7.285800000000000E9     4.396005860981102E-1   -9.051984389010109E1
 7.285825000000000E9     4.397830647212534E-1   -9.047405597430951E1
 7.285850000000000E9     4.399480726168067E-1   -9.042948440772628E1
 7.285875000000000E9     4.401240147765554E-1   -9.038562710329269E1
 7.285900000000000E9     4.402809091771812E-1   -9.034220489958581E1
 7.285925000000000E9     4.404508305229916E-1   -9.029694301155980E1
 7.285950000000000E9     4.406073178792366E-1   -9.025364118123403E1
 7.285975000000000E9     4.407801511155232E-1   -9.020995712853588E1
 7.286000000000000E9     4.409300698572471E-1   -9.016560537808967E1
 7.286025000000000E9     4.410960527272176E-1   -9.011890868107717E1
 7.286050000000000E9     4.412517268587864E-1   -9.007450255004147E1
 7.286075000000000E9     4.414096969495845E-1   -9.002826941312576E1
 7.286100000000000E9     4.415732108305896E-1   -8.998251231345618E1
 7.286125000000000E9     4.417388111176712E-1   -8.993784919365359E1
 7.286150000000000E9     4.418902703821911E-1   -8.989386293395805E1
 7.286175000000000E9     4.420543482944753E-1   -8.984969190914802E1
 7.286200000000000E9     4.421972114025851E-1   -8.980586000094881E1
 7.286225000000000E9     4.423613981785200E-1   -8.976186594647925E1
 7.286250000000000E9     4.425299758931783E-1   -8.971802475742651E1
 7.286275000000000E9     4.426952807599328E-1   -8.967289679122929E1
 7.286300000000000E9     4.428518500256666E-1   -8.962866271292151E1
 7.286325000000000E9     4.430057070829672E-1   -8.958280595219112E1
 7.286350000000000E9     4.431530524610455E-1   -8.953773045828240E1
 7.286375000000000E9     4.433146794792631E-1   -8.949100157812406E1
 7.286400000000000E9     4.434542886387958E-1   -8.944612545279195E1
 7.286425000000000E9     4.436173034242734E-1   -8.940020116733200E1
 7.286450000000000E9     4.437733117177455E-1   -8.935421011846678E1
 7.286475000000000E9     4.439270723456223E-1   -8.931177119804536E1
 7.286500000000000E9     4.440710064530939E-1   -8.926666761852222E1
 7.286525000000000E9     4.442116168479008E-1   -8.922430179140925E1
 7.286550000000000E9     4.443486289444692E-1   -8.918013294885547E1
 7.286575000000000E9     4.444977576291300E-1   -8.913374840734286E1
 7.286600000000000E9     4.446412575531246E-1   -8.908901317351730E1
 7.286625000000000E9     4.448008106781194E-1   -8.904106154784500E1
 7.286650000000000E9     4.449431053934222E-1   -8.899527724273472E1
 7.286675000000000E9     4.450904677055901E-1   -8.894952306952294E1
 7.286700000000000E9     4.452400598938828E-1   -8.890382581952969E1
 7.286725000000000E9     4.453863996310485E-1   -8.885859623246081E1
 7.286750000000000E9     4.455226647572547E-1   -8.881445668791571E1
 7.286775000000000E9     4.456790395015992E-1   -8.877036199039948E1
 7.286800000000000E9     4.458372593123235E-1   -8.872502167784722E1
 7.286825000000000E9     4.459773638392894E-1   -8.868105998576374E1
 7.286850000000000E9     4.461086264867000E-1   -8.863536448489806E1
 7.286875000000000E9     4.462640023630636E-1   -8.859001645891902E1
 7.286900000000000E9     4.463970473697008E-1   -8.854599637965026E1
 7.286925000000000E9     4.465313366050026E-1   -8.849705213624178E1
 7.286950000000000E9     4.466774451554102E-1   -8.845293469913703E1
 7.286975000000000E9     4.467982571593366E-1   -8.840676021795200E1
 7.287000000000000E9     4.469274481667453E-1   -8.835978924016062E1
 7.287025000000000E9     4.470792093294452E-1   -8.831592133669210E1
 7.287050000000000E9     4.472195952918999E-1   -8.827129375393130E1
 7.287075000000000E9     4.473548080748269E-1   -8.822654242305833E1
 7.287100000000000E9     4.475182044973613E-1   -8.818239526401713E1
 7.287125000000000E9     4.476292784859370E-1   -8.813715070384283E1
 7.287150000000000E9     4.477798286180582E-1   -8.809042298138526E1
 7.287175000000000E9     4.479061577222340E-1   -8.804460272714940E1
 7.287200000000000E9     4.480456465071507E-1   -8.799911488434066E1
 7.287225000000000E9     4.481697323246287E-1   -8.795345784172116E1
 7.287250000000000E9     4.483072364123500E-1   -8.790602723718861E1
 7.287275000000000E9     4.484463192369899E-1   -8.785994784564060E1
 7.287300000000000E9     4.485892849211924E-1   -8.781480357724982E1
 7.287325000000000E9     4.487282875115223E-1   -8.776867005147965E1
 7.287350000000000E9     4.488460840432956E-1   -8.772433772472904E1
 7.287375000000000E9     4.489774327013891E-1   -8.767773398506021E1
 7.287400000000000E9     4.491115929357648E-1   -8.763376310633492E1
 7.287425000000000E9     4.492484669980932E-1   -8.758725855283883E1
 7.287450000000000E9     4.493692839343692E-1   -8.754209488275296E1
 7.287475000000000E9     4.494909418821723E-1   -8.749652806049042E1
 7.287500000000000E9     4.496237568963108E-1   -8.745031486537674E1
 7.287525000000000E9     4.497466186816875E-1   -8.740389459645408E1
 7.287550000000000E9     4.498875104500339E-1   -8.735606552670589E1
 7.287575000000000E9     4.500008616084107E-1   -8.731023211675029E1
 7.287600000000000E9     4.501560501263538E-1   -8.726456525089350E1
 7.287625000000000E9     4.502592074240052E-1   -8.721940867455338E1
 7.287650000000000E9     4.503910624315371E-1   -8.717497763668685E1
 7.287675000000000E9     4.505150268502339E-1   -8.712997521288609E1
 7.287700000000000E9     4.506444114261063E-1   -8.708402747370172E1
 7.287725000000000E9     4.507617229969195E-1   -8.703972262571065E1
 7.287750000000000E9     4.508779486835843E-1   -8.699265009694501E1
 7.287775000000000E9     4.510069369148472E-1   -8.694626074445141E1
 7.287800000000000E9     4.511291438847579E-1   -8.689958146340186E1
 7.287825000000000E9     4.512436956720963E-1   -8.685406391426589E1
 7.287850000000000E9     4.513657515005329E-1   -8.680759071694806E1
 7.287875000000000E9     4.514778335199393E-1   -8.676187240791805E1
 7.287900000000000E9     4.515937776526372E-1   -8.671639156063083E1
 7.287925000000000E9     4.517261696490242E-1   -8.667237025596781E1
 7.287950000000000E9     4.518416533956127E-1   -8.662591456099993E1
 7.287975000000000E9     4.519532248892742E-1   -8.658171909849501E1
 7.288000000000000E9     4.520764428697823E-1   -8.653595200202889E1
 7.288025000000000E9     4.521874249856266E-1   -8.648952415881732E1
 7.288050000000000E9     4.523022838383970E-1   -8.644320736078733E1
 7.288075000000000E9     4.524038305636079E-1   -8.639716800897816E1
 7.288100000000000E9     4.525373167842215E-1   -8.635060027384984E1
 7.288125000000000E9     4.526434230931614E-1   -8.630492325650259E1
 7.288150000000000E9     4.527587500609497E-1   -8.625911072446561E1
 7.288175000000000E9     4.528696223296803E-1   -8.621292690944077E1
 7.288200000000000E9     4.529985752529676E-1   -8.616840369343434E1
 7.288225000000000E9     4.530920787513266E-1   -8.612283971872405E1
 7.288250000000000E9     4.532017910300840E-1   -8.607633884914344E1
 7.288275000000000E9     4.533133598218578E-1   -8.603189643824115E1
 7.288300000000000E9     4.534135619319215E-1   -8.598573129397042E1
 7.288325000000000E9     4.535246813316943E-1   -8.593869733524430E1
 7.288350000000000E9     4.536286496004973E-1   -8.589229782798211E1
 7.288375000000000E9     4.537282536339783E-1   -8.584635580545265E1
 7.288400000000000E9     4.538476062160555E-1   -8.579953031006045E1
 7.288425000000000E9     4.539577513266903E-1   -8.575263714788753E1
 7.288450000000000E9     4.540671554292240E-1   -8.570579253400192E1
 7.288475000000000E9     4.541798111427840E-1   -8.566032463128447E1
 7.288500000000000E9     4.542826993431832E-1   -8.561510069518552E1
 7.288525000000000E9     4.543787643844627E-1   -8.556884181828207E1
 7.288550000000000E9     4.544783200879527E-1   -8.552278272823706E1
 7.288575000000000E9     4.545726185748321E-1   -8.547666834765691E1
 7.288600000000000E9     4.546776013467239E-1   -8.543187850586476E1
 7.288625000000000E9     4.547827679292625E-1   -8.538607682729500E1
 7.288650000000000E9     4.548780756431638E-1   -8.533962096181185E1
 7.288675000000000E9     4.549939071521105E-1   -8.529263645853980E1
 7.288700000000000E9     4.550990490914304E-1   -8.524588081735936E1
 7.288725000000000E9     4.552069006370530E-1   -8.520059194117643E1
 7.288750000000000E9     4.553151431280513E-1   -8.515543428196509E1
 7.288775000000000E9     4.554136105046820E-1   -8.510833579856728E1
 7.288800000000000E9     4.555192807451410E-1   -8.506322645843234E1
 7.288825000000000E9     4.556077462081944E-1   -8.501628620799987E1
 7.288850000000000E9     4.557082879400327E-1   -8.497125073957798E1
 7.288875000000000E9     4.557891516393635E-1   -8.492468395130878E1
 7.288900000000000E9     4.558885892246950E-1   -8.487777948806958E1
 7.288925000000000E9     4.559770487297961E-1   -8.483204471834043E1
 7.288950000000000E9     4.560832520675390E-1   -8.478533460130248E1
 7.288975000000000E9     4.561690062116614E-1   -8.473863768518443E1
 7.289000000000000E9     4.562609152052627E-1   -8.469376470694554E1
 7.289025000000000E9     4.563635988615822E-1   -8.464651875651337E1
 7.289050000000000E9     4.564558077930624E-1   -8.459989745629437E1
 7.289075000000000E9     4.565587464112557E-1   -8.455523048247144E1
 7.289100000000000E9     4.566496802507202E-1   -8.450878021074274E1
 7.289125000000000E9     4.567444508430342E-1   -8.446386055845458E1
 7.289150000000000E9     4.568287491466506E-1   -8.441752999276363E1
 7.289175000000000E9     4.569260807876113E-1   -8.437203379305488E1
 7.289200000000000E9     4.570075484908676E-1   -8.432642695039479E1
 7.289225000000000E9     4.571061076878190E-1   -8.427985830166325E1
 7.289250000000000E9     4.571959773442521E-1   -8.423312990584152E1
 7.289275000000000E9     4.572995920233947E-1   -8.418549368256556E1
 7.289300000000000E9     4.573932903913858E-1   -8.414154640021361E1
 7.289325000000000E9     4.574550101431141E-1   -8.409506485109617E1
 7.289350000000000E9     4.575357499757776E-1   -8.404854270810984E1
 7.289375000000000E9     4.576189409726212E-1   -8.400096971777188E1
 7.289400000000000E9     4.577083181660189E-1   -8.395537846875175E1
 7.289425000000000E9     4.578057292105476E-1   -8.391114626533314E1
 7.289450000000000E9     4.578784357068347E-1   -8.386613930905015E1
 7.289475000000000E9     4.579721711881123E-1   -8.381817055389739E1
 7.289500000000000E9     4.580508952111755E-1   -8.377208413613555E1
 7.289525000000000E9     4.581302731593188E-1   -8.372492247077116E1
 7.289550000000000E9     4.582241864718041E-1   -8.368000822294206E1
 7.289575000000000E9     4.583042331548141E-1   -8.363244859267316E1
 7.289600000000000E9     4.583855031913170E-1   -8.358612557437959E1
 7.289625000000000E9     4.584544339098671E-1   -8.354174387952504E1
 7.289650000000000E9     4.585474597116468E-1   -8.349442760543091E1
 7.289675000000000E9     4.586147313730533E-1   -8.344911834414506E1
 7.289700000000000E9     4.587017598796161E-1   -8.340338753242763E1
 7.289725000000000E9     4.587765801736846E-1   -8.335808664766006E1
 7.289750000000000E9     4.588553515602954E-1   -8.331268463627153E1
 7.289775000000000E9     4.589348274328021E-1   -8.326625393480711E1
 7.289800000000000E9     4.590190974844025E-1   -8.322084323092601E1
 7.289825000000000E9     4.591009187527451E-1   -8.317491362040627E1
 7.289850000000000E9     4.591883478809006E-1   -8.312837952124862E1
 7.289875000000000E9     4.592608088956414E-1   -8.308169369807190E1
 7.289900000000000E9     4.593368377681601E-1   -8.303640051358602E1
 7.289925000000000E9     4.594031562137033E-1   -8.298874444858036E1
 7.289950000000000E9     4.594782152199872E-1   -8.294392486155067E1
 7.289975000000000E9     4.595282560422920E-1   -8.289976349854069E1
 7.290000000000000E9     4.596099730484591E-1   -8.285163326323529E1
 7.290025000000000E9     4.596710993297977E-1   -8.280572107577788E1
 7.290050000000000E9     4.597661586537629E-1   -8.276035216228823E1
 7.290075000000000E9     4.598338986868427E-1   -8.271341993552072E1
 7.290100000000000E9     4.599012031330743E-1   -8.266848562977700E1
 7.290125000000000E9     4.599677338382807E-1   -8.262274999229385E1
 7.290150000000000E9     4.600469785117161E-1   -8.257531788791100E1
 7.290175000000000E9     4.601288035965704E-1   -8.253068674981418E1
 7.290200000000000E9     4.602041371355958E-1   -8.248281412722532E1
 7.290225000000000E9     4.602636103347870E-1   -8.243809579239621E1
 7.290250000000000E9     4.603392990848614E-1   -8.239291517913395E1
 7.290275000000000E9     4.604029194238404E-1   -8.234647229741140E1
 7.290300000000000E9     4.604866137553480E-1   -8.230175448695684E1
 7.290325000000000E9     4.605586056936158E-1   -8.225588472273250E1
 7.290350000000000E9     4.606325858982782E-1   -8.221111807408312E1
 7.290375000000000E9     4.607155189424189E-1   -8.216496336334595E1
 7.290400000000000E9     4.607807359280637E-1   -8.212049339618460E1
 7.290425000000000E9     4.608520908900639E-1   -8.207402682482875E1
 7.290450000000000E9     4.609029830650052E-1   -8.202804954337658E1
 7.290475000000000E9     4.609696619715652E-1   -8.198098166219677E1
 7.290500000000000E9     4.610213109939391E-1   -8.193585851146155E1
 7.290525000000000E9     4.610913354746751E-1   -8.188857232426342E1
 7.290550000000000E9     4.611480360488963E-1   -8.184404076986947E1
 7.290575000000000E9     4.611991510506442E-1   -8.179854830449065E1
 7.290600000000000E9     4.612800041870476E-1   -8.175251729539663E1
 7.290625000000000E9     4.613338155934836E-1   -8.170729267249332E1
 7.290650000000000E9     4.613896272617417E-1   -8.166167701595214E1
 7.290675000000000E9     4.614496801678618E-1   -8.161559418976590E1
 7.290700000000000E9     4.615233028376204E-1   -8.156848267571685E1
 7.290725000000000E9     4.615698937243374E-1   -8.152305509166624E1
 7.290750000000000E9     4.616356900282071E-1   -8.147635366122701E1
 7.290775000000000E9     4.616673025626482E-1   -8.143278094897893E1
 7.290800000000000E9     4.617236546796441E-1   -8.138745682107263E1
 7.290825000000000E9     4.617826278097354E-1   -8.134154778142312E1
 7.290850000000000E9     4.618425392117085E-1   -8.129709332479344E1
 7.290875000000000E9     4.619009068095741E-1   -8.125243898586055E1
 7.290900000000000E9     4.619550459140424E-1   -8.120687272076067E1
 7.290925000000000E9     4.620178836718847E-1   -8.116105105593709E1
 7.290950000000000E9     4.620827488866865E-1   -8.111464792262801E1
 7.290975000000000E9     4.621439349690317E-1   -8.106959720092813E1
 7.291000000000000E9     4.622054176035918E-1   -8.102234011064334E1
 7.291025000000000E9     4.622336109941887E-1   -8.097619166416338E1
 7.291050000000000E9     4.622886613934733E-1   -8.093245679119083E1
 7.291075000000000E9     4.623436676119598E-1   -8.088627818859693E1
 7.291100000000000E9     4.623990080738728E-1   -8.084164440007342E1
 7.291125000000000E9     4.624462576121663E-1   -8.079661931018737E1
 7.291150000000000E9     4.625088240335985E-1   -8.075057245004895E1
 7.291175000000000E9     4.625551092727944E-1   -8.070694262326846E1
 7.291200000000000E9     4.626117379265071E-1   -8.066089425405369E1
 7.291225000000000E9     4.626728240092552E-1   -8.061580570444340E1
 7.291250000000000E9     4.627102912088487E-1   -8.057067108048926E1
 7.291275000000000E9     4.627575169503755E-1   -8.052446584955604E1
 7.291300000000000E9     4.627820863923820E-1   -8.048031001041922E1
 7.291325000000000E9     4.628455416290788E-1   -8.043245833096113E1
 7.291350000000000E9     4.628804616364345E-1   -8.038862104484670E1
 7.291375000000000E9     4.629337685508596E-1   -8.034309909387983E1
 7.291400000000000E9     4.629796743612886E-1   -8.029768411583565E1
 7.291425000000000E9     4.630313190770750E-1   -8.025331368827020E1
 7.291450000000000E9     4.630808083053026E-1   -8.020640132766586E1
 7.291475000000000E9     4.631248092988978E-1   -8.016416041553809E1
 7.291500000000000E9     4.631785205377580E-1   -8.011783297764380E1
 7.291525000000000E9     4.632244036860941E-1   -8.007357626678741E1
 7.291550000000000E9     4.632629657310597E-1   -8.002736606225767E1
 7.291575000000000E9     4.633044595992134E-1   -7.998230510608364E1
 7.291600000000000E9     4.633571976081918E-1   -7.993690836942662E1
 7.291625000000000E9     4.634051176685975E-1   -7.989356137472549E1
 7.291650000000000E9     4.634422483683944E-1   -7.984967351912640E1
 7.291675000000000E9     4.634902170165439E-1   -7.980274781057039E1
 7.291700000000000E9     4.635325131330651E-1   -7.975913390913242E1
 7.291725000000000E9     4.635795555090903E-1   -7.971526640235277E1
 7.291750000000000E9     4.636248395648113E-1   -7.966884195057614E1
 7.291775000000000E9     4.636599079570475E-1   -7.962612643218290E1
 7.291800000000000E9     4.637078285410685E-1   -7.958078609853480E1
 7.291825000000000E9     4.637245619377413E-1   -7.953418193192135E1
 7.291850000000000E9     4.637745164713984E-1   -7.948948756654745E1
 7.291875000000000E9     4.638058122303973E-1   -7.944466551152462E1
 7.291900000000000E9     4.638368276307900E-1   -7.939783904803456E1
 7.291925000000000E9     4.638672905727989E-1   -7.935435330737278E1
 7.291950000000000E9     4.639129588429946E-1   -7.930940468357547E1
 7.291975000000000E9     4.639419361400942E-1   -7.926339044936934E1
 7.292000000000000E9     4.639858215990913E-1   -7.921975870809277E1
 7.292025000000000E9     4.640227029276149E-1   -7.917596072998037E1
 7.292050000000000E9     4.640547287026724E-1   -7.913032582082880E1
 7.292075000000000E9     4.640944402372581E-1   -7.908626451109477E1
 7.292100000000000E9     4.641286313190836E-1   -7.904081039620533E1
 7.292125000000000E9     4.641693427431308E-1   -7.899491228286733E1
 7.292150000000000E9     4.641907467992899E-1   -7.894888259998390E1
 7.292175000000000E9     4.642292180202130E-1   -7.890536008846308E1
 7.292200000000000E9     4.642553176944878E-1   -7.886129864746655E1
 7.292225000000000E9     4.642857038605862E-1   -7.881530976370011E1
 7.292250000000000E9     4.643281204523186E-1   -7.877132425166967E1
 7.292275000000000E9     4.643490070749430E-1   -7.872848554114250E1
 7.292300000000000E9     4.643778826742146E-1   -7.868346683017887E1
 7.292325000000000E9     4.644198264012130E-1   -7.864093118463690E1
 7.292350000000000E9     4.644500609935509E-1   -7.859644764174804E1
 7.292375000000000E9     4.644887491772048E-1   -7.855075248234694E1
 7.292400000000000E9     4.645004548905253E-1   -7.850696850203529E1
 7.292425000000000E9     4.645228184785557E-1   -7.846097638688481E1
 7.292450000000000E9     4.645696559857145E-1   -7.841579113337175E1
 7.292475000000000E9     4.645787403536906E-1   -7.837065980417538E1
 7.292500000000000E9     4.646104311216803E-1   -7.832754560119365E1
 7.292525000000000E9     4.646431039194422E-1   -7.828301481130491E1
 7.292550000000000E9     4.646641773563578E-1   -7.823897259898764E1
 7.292575000000000E9     4.646925727310485E-1   -7.819693950629905E1
 7.292600000000000E9     4.647119407235162E-1   -7.815203736143563E1
 7.292625000000000E9     4.647335414111811E-1   -7.810802720891557E1
 7.292650000000000E9     4.647431833457999E-1   -7.806367470828260E1
 7.292675000000000E9     4.647748870399472E-1   -7.801926053888864E1
 7.292700000000000E9     4.648006063947916E-1   -7.797530395380535E1
 7.292725000000000E9     4.648229197330795E-1   -7.793122203669647E1
 7.292750000000000E9     4.648448701468100E-1   -7.788714664679429E1
 7.292775000000000E9     4.648674481777793E-1   -7.784234699410949E1
 7.292800000000000E9     4.648830606691435E-1   -7.779811299615830E1
 7.292825000000000E9     4.649161444798274E-1   -7.775373389055299E1
 7.292850000000000E9     4.649357002838632E-1   -7.771095048954290E1
 7.292875000000000E9     4.649587739437946E-1   -7.766833357651034E1
 7.292900000000000E9     4.649719109781486E-1   -7.762280990118158E1
 7.292925000000000E9     4.649755794257625E-1   -7.758114324420318E1
 7.292950000000000E9     4.649862952067834E-1   -7.753692812198517E1
 7.292975000000000E9     4.649991370676151E-1   -7.749224386553337E1
 7.293000000000000E9     4.650113070917093E-1   -7.744760263551720E1
 7.293025000000000E9     4.650257255218061E-1   -7.740413296754076E1
 7.293050000000000E9     4.650288696423757E-1   -7.736054938296715E1
 7.293075000000000E9     4.650502476860224E-1   -7.731748927682992E1
 7.293100000000000E9     4.650467143732142E-1   -7.727283946227638E1
 7.293125000000000E9     4.650625155385387E-1   -7.722928411783653E1
 7.293150000000000E9     4.650680829572421E-1   -7.718560757001258E1
 7.293175000000000E9     4.650931200681560E-1   -7.714373852706653E1
 7.293200000000000E9     4.650723758236124E-1   -7.710193133404285E1
 7.293225000000000E9     4.651085345135280E-1   -7.705674891067991E1
 7.293250000000000E9     4.651350637712197E-1   -7.701399111135008E1
 7.293275000000000E9     4.651374020796589E-1   -7.697014410380430E1
 7.293300000000000E9     4.651480027795215E-1   -7.692716968251069E1
 7.293325000000000E9     4.651599531046848E-1   -7.688184382799199E1
 7.293350000000000E9     4.651764258405010E-1   -7.683920498398101E1
 7.293375000000000E9     4.651988949998148E-1   -7.679569854192275E1
 7.293400000000000E9     4.651893991993731E-1   -7.675358824656151E1
 7.293425000000000E9     4.652189400982716E-1   -7.670944902156501E1
 7.293450000000000E9     4.652181276379815E-1   -7.666525044631712E1
 7.293475000000000E9     4.651985671684557E-1   -7.662399760298733E1
 7.293500000000000E9     4.651803452749962E-1   -7.657982348680358E1
 7.293525000000000E9     4.652036732266532E-1   -7.653588662729271E1
 7.293550000000000E9     4.652103166201081E-1   -7.649374995386329E1
 7.293575000000000E9     4.651958750263709E-1   -7.644889170346529E1
 7.293600000000000E9     4.652033348795326E-1   -7.640437416591118E1
 7.293625000000000E9     4.651945973254014E-1   -7.636030973439675E1
 7.293650000000000E9     4.652059421118380E-1   -7.631906776854588E1
 7.293675000000000E9     4.652246196038987E-1   -7.627594441917071E1
 7.293700000000000E9     4.652251631492916E-1   -7.623350098289085E1
 7.293725000000000E9     4.652314112788284E-1   -7.619089356845458E1
 7.293750000000000E9     4.652294326229154E-1   -7.614938331106919E1
 7.293775000000000E9     4.652268098800205E-1   -7.610598884826075E1
 7.293800000000000E9     4.652297638837853E-1   -7.606270819615246E1
 7.293825000000000E9     4.652288141382891E-1   -7.601926185261357E1
 7.293850000000000E9     4.652305002804947E-1   -7.597648388229226E1
 7.293875000000000E9     4.652363284638675E-1   -7.593277264207111E1
 7.293900000000000E9     4.652389632501197E-1   -7.588818592735299E1
 7.293925000000000E9     4.652597127542655E-1   -7.584497679300610E1
 7.293950000000000E9     4.652613409958641E-1   -7.580237223470353E1
 7.293975000000000E9     4.652464261294323E-1   -7.575986832816128E1
 7.294000000000000E9     4.652393003980625E-1   -7.572038662833961E1
 7.294025000000000E9     4.652377255667514E-1   -7.567689241326870E1
 7.294050000000000E9     4.652014542912298E-1   -7.563677412861296E1
 7.294075000000000E9     4.651786367827788E-1   -7.559371611143129E1
 7.294100000000000E9     4.651348077361492E-1   -7.555263578345787E1
 7.294125000000000E9     4.651133161176045E-1   -7.550857161022400E1
 7.294150000000000E9     4.650999015046374E-1   -7.546752812923742E1
 7.294175000000000E9     4.651073949772285E-1   -7.542402474398089E1
 7.294200000000000E9     4.651128919429594E-1   -7.538220382420160E1
 7.294225000000000E9     4.651071878960449E-1   -7.534022140289187E1
 7.294250000000000E9     4.651093156975132E-1   -7.529938384195475E1
 7.294275000000000E9     4.650871829351071E-1   -7.525646341630765E1
 7.294300000000000E9     4.650854599423962E-1   -7.521357071200390E1
 7.294325000000000E9     4.650590131720665E-1   -7.517342292344813E1
 7.294350000000000E9     4.650238867117808E-1   -7.513058256041502E1
 7.294375000000000E9     4.649797263059650E-1   -7.509015858758249E1
 7.294400000000000E9     4.649710699965930E-1   -7.504958440517238E1
 7.294425000000000E9     4.649772549275303E-1   -7.500531284860288E1
 7.294450000000000E9     4.649695535860904E-1   -7.496329320750377E1
 7.294475000000000E9     4.649623950500751E-1   -7.492049974187562E1
 7.294500000000000E9     4.649649761560849E-1   -7.487931366605822E1
 7.294525000000000E9     4.649381329286517E-1   -7.483557347947678E1
 7.294550000000000E9     4.649118195266442E-1   -7.479259659154967E1
 7.294575000000000E9     4.648610700988439E-1   -7.475212749597326E1
 7.294600000000000E9     4.648134159647087E-1   -7.471200850926168E1
 7.294625000000000E9     4.647683860602547E-1   -7.467157549493015E1
 7.294650000000000E9     4.647446252057342E-1   -7.462969213466934E1
 7.294675000000000E9     4.647258462851304E-1   -7.458927603435559E1
 7.294700000000000E9     4.647285078565407E-1   -7.454740547736465E1
 7.294725000000000E9     4.646976380805120E-1   -7.450519077638093E1
 7.294750000000000E9     4.646920111295842E-1   -7.446154504847225E1
 7.294775000000000E9     4.647008661537360E-1   -7.442016126461199E1
 7.294800000000000E9     4.646927395733098E-1   -7.437713370711681E1
 7.294825000000000E9     4.646592505118246E-1   -7.433436746418280E1
 7.294850000000000E9     4.646384412553726E-1   -7.429266768106407E1
 7.294875000000000E9     4.646034425347029E-1   -7.425302860939911E1
 7.294900000000000E9     4.645823215576780E-1   -7.421244375823528E1
 7.294925000000000E9     4.645431491247741E-1   -7.417135362358241E1
 7.294950000000000E9     4.645467803842734E-1   -7.413011613545267E1
 7.294975000000000E9     4.645290535456687E-1   -7.408912645943089E1
 7.295000000000000E9     4.645076277411079E-1   -7.404807604779039E1
 7.295025000000000E9     4.644986473468505E-1   -7.400569939991193E1
 7.295050000000000E9     4.644825262902214E-1   -7.396182356685438E1
 7.295075000000000E9     4.644749101878705E-1   -7.392032994272982E1
 7.295100000000000E9     4.644346384551521E-1   -7.387832377684957E1
 7.295125000000000E9     4.644243885877327E-1   -7.383799603787176E1
 7.295150000000000E9     4.643834618780601E-1   -7.379696347192889E1
 7.295175000000000E9     4.643539874829080E-1   -7.375917306117812E1
 7.295200000000000E9     4.643199921962056E-1   -7.371789143562788E1
 7.295225000000000E9     4.642723862770862E-1   -7.367933596574866E1
 7.295250000000000E9     4.642376818868376E-1   -7.363860254189461E1
 7.295275000000000E9     4.642186506864179E-1   -7.359775066383362E1
 7.295300000000000E9     4.642065016431129E-1   -7.355616790137721E1
 7.295325000000000E9     4.641849671527682E-1   -7.351478780442648E1
 7.295350000000000E9     4.641543081669423E-1   -7.347433319319799E1
 7.295375000000000E9     4.641226793558530E-1   -7.343255090308253E1
 7.295400000000000E9     4.640873451850133E-1   -7.339244978348754E1
 7.295425000000000E9     4.640489997157878E-1   -7.335127692396804E1
 7.295450000000000E9     4.640190792896141E-1   -7.331001172666912E1
 7.295475000000000E9     4.639896411537767E-1   -7.327231184869841E1
 7.295500000000000E9     4.639251108924340E-1   -7.323193969118324E1
 7.295525000000000E9     4.638874959176590E-1   -7.319292207747090E1
 7.295550000000000E9     4.638483221644982E-1   -7.315238784121904E1
 7.295575000000000E9     4.638234661224977E-1   -7.311194376255347E1
 7.295600000000000E9     4.637990331994347E-1   -7.307090582063795E1
 7.295625000000000E9     4.637648929568525E-1   -7.303128246943474E1
 7.295650000000000E9     4.637047155994375E-1   -7.299225823461387E1
 7.295675000000000E9     4.636674773104473E-1   -7.294900403369513E1
 7.295700000000000E9     4.636298479890669E-1   -7.290797923928666E1
 7.295725000000000E9     4.635811633324757E-1   -7.286752675062161E1
 7.295750000000000E9     4.635418736932664E-1   -7.282898303848131E1
 7.295775000000000E9     4.634750854285198E-1   -7.279180237857736E1
 7.295800000000000E9     4.634372590537009E-1   -7.275185727550821E1
 7.295825000000000E9     4.634132309884454E-1   -7.271218873091928E1
 7.295850000000000E9     4.633989179488114E-1   -7.267173657399931E1
 7.295875000000000E9     4.633606017101209E-1   -7.263114916268812E1
 7.295900000000000E9     4.633095493904582E-1   -7.259229026943667E1
 7.295925000000000E9     4.632759509599128E-1   -7.255007714211685E1
 7.295950000000000E9     4.632252903733733E-1   -7.250784657000874E1
 7.295975000000000E9     4.631876483614716E-1   -7.246796632039417E1
 7.296000000000000E9     4.631306465776517E-1   -7.242759390226618E1
 7.296025000000000E9     4.630939560102453E-1   -7.238807211502429E1
 7.296050000000000E9     4.630289514534344E-1   -7.235056554257812E1
 7.296075000000000E9     4.630009256598296E-1   -7.231373300880392E1
 7.296100000000000E9     4.629334422583101E-1   -7.227509530608690E1
 7.296125000000000E9     4.628831919511018E-1   -7.223733289310526E1
 7.296150000000000E9     4.628548740161412E-1   -7.219716171539741E1
 7.296175000000000E9     4.628005022999284E-1   -7.215787454407464E1
 7.296200000000000E9     4.627407852591925E-1   -7.211920798787594E1
 7.296225000000000E9     4.627037193388084E-1   -7.207802004716167E1
 7.296250000000000E9     4.626435800578201E-1   -7.203699951930108E1
 7.296275000000000E9     4.625899031691069E-1   -7.199790160042735E1
 7.296300000000000E9     4.625224685373875E-1   -7.195776580383765E1
 7.296325000000000E9     4.624707300261828E-1   -7.192135674848907E1
 7.296350000000000E9     4.624081383392197E-1   -7.188513188922272E1
 7.296375000000000E9     4.623553163202306E-1   -7.184881587370820E1
 7.296400000000000E9     4.623045768569085E-1   -7.180856736093368E1
 7.296425000000000E9     4.622458496612822E-1   -7.177037399050826E1
 7.296450000000000E9     4.622052131772601E-1   -7.173180207132887E1
 7.296475000000000E9     4.621438418781085E-1   -7.169199103946103E1
 7.296500000000000E9     4.620883571049340E-1   -7.165162552479202E1
 7.296525000000000E9     4.620394195894066E-1   -7.161070668022236E1
 7.296550000000000E9     4.619804923413992E-1   -7.157340593577945E1
 7.296575000000000E9     4.619047475304164E-1   -7.153346511331883E1
 7.296600000000000E9     4.618383721239211E-1   -7.149675345461431E1
 7.296625000000000E9     4.617816861404447E-1   -7.145879708410067E1
 7.296650000000000E9     4.617091369566017E-1   -7.142366787336040E1
 7.296675000000000E9     4.616435985025948E-1   -7.138568011388043E1
 7.296700000000000E9     4.615989068267171E-1   -7.134811774129302E1
 7.296725000000000E9     4.615182599749361E-1   -7.131026503564158E1
 7.296750000000000E9     4.614582498732242E-1   -7.127191049589435E1
 7.296775000000000E9     4.613981683559697E-1   -7.123149695321493E1
 7.296800000000000E9     4.613214300187637E-1   -7.119283522227468E1
 7.296825000000000E9     4.612522589084192E-1   -7.115390150861349E1
 7.296850000000000E9     4.611839630612667E-1   -7.111477113148975E1
 7.296875000000000E9     4.611197296622974E-1   -7.107761115330416E1
 7.296900000000000E9     4.610398364011651E-1   -7.103952257370081E1
 7.296925000000000E9     4.609690023028768E-1   -7.100293696993698E1
 7.296950000000000E9     4.609229582260670E-1   -7.096721882192462E1
 7.296975000000000E9     4.608362997921909E-1   -7.093105845803632E1
 7.297000000000000E9     4.607666529519695E-1   -7.089345553966902E1
 7.297025000000000E9     4.606845909134350E-1   -7.085606855304884E1
 7.297050000000000E9     4.605999135158568E-1   -7.081682785761122E1
 7.297075000000000E9     4.605431895505349E-1   -7.077833998490540E1
 7.297100000000000E9     4.604462509047250E-1   -7.073868101843965E1
 7.297125000000000E9     4.603699709215664E-1   -7.070167944302185E1
 7.297150000000000E9     4.602872200809770E-1   -7.066305389604572E1
 7.297175000000000E9     4.602155981748391E-1   -7.062814039236574E1
 7.297200000000000E9     4.601347049950321E-1   -7.059239310514120E1
 7.297225000000000E9     4.600516875986778E-1   -7.055820728093835E1
 7.297250000000000E9     4.599698413247203E-1   -7.052289765628480E1
 7.297275000000000E9     4.598836354546407E-1   -7.048688549114894E1
 7.297300000000000E9     4.598018290049247E-1   -7.045024899529857E1
 7.297325000000000E9     4.596978387023425E-1   -7.041188907616731E1
 7.297350000000000E9     4.596228910848335E-1   -7.037434575966788E1
 7.297375000000000E9     4.595270161681779E-1   -7.033586819613821E1
 7.297400000000000E9     4.594768379967345E-1   -7.029813492850106E1
 7.297425000000000E9     4.593774593065626E-1   -7.026161879049292E1
 7.297450000000000E9     4.592965847951275E-1   -7.022508517273130E1
 7.297475000000000E9     4.592116567544389E-1   -7.018760584609127E1
 7.297500000000000E9     4.591159208425679E-1   -7.015286091709872E1
 7.297525000000000E9     4.590510642550774E-1   -7.011831385400326E1
 7.297550000000000E9     4.589592187729374E-1   -7.008312211743029E1
 7.297575000000000E9     4.588548213515414E-1   -7.004800994700766E1
 7.297600000000000E9     4.587528332946688E-1   -7.001238345443890E1
 7.297625000000000E9     4.586635799611449E-1   -6.997589496298856E1
 7.297650000000000E9     4.585825908219691E-1   -6.993824304809225E1
 7.297675000000000E9     4.584881011091557E-1   -6.990046726478920E1
 7.297700000000000E9     4.584148765402988E-1   -6.986449123415862E1
 7.297725000000000E9     4.583145554547212E-1   -6.982755127765641E1
 7.297750000000000E9     4.582265106711889E-1   -6.979303354912577E1
 7.297775000000000E9     4.581199142136648E-1   -6.975809964857136E1
 7.297800000000000E9     4.580442285776382E-1   -6.972336194198797E1
 7.297825000000000E9     4.579699316747082E-1   -6.968912337125781E1
 7.297850000000000E9     4.578480651007353E-1   -6.965450008547617E1
