#  HZ   S   MA   R     50.00 
! Rohde & Schwarz Vector Network Analyzer 
! Rohde-Schwarz,ZNB20-2Port,1311601062101564,3.50
! Created: UTC 4/2/2026, 6:04:24 AM
! freq[Hz]                mag:S21                 ang:S21
 7.267850000000000E9     5.714469381279957E-4   -3.647485370053234E1
 7.267855000000000E9     5.752921196794266E-4   -3.653610053482546E1
 7.267860000000000E9     5.742638853277391E-4   -3.654539159301991E1
 7.267865000000000E9     5.688211590559814E-4   -3.647340535274974E1
 7.267870000000000E9     5.752157035406606E-4   -3.629224446668077E1
 7.267875000000000E9     5.764801876876939E-4   -3.671673147901846E1
 7.267880000000000E9     5.735786006197348E-4   -3.621318478658804E1
 7.267885000000000E9     5.748835622098980E-4   -3.653375878518267E1
 7.267890000000000E9     5.723677285806808E-4   -3.653561919341135E1
 7.267895000000000E9     5.765863087229532E-4   -3.644831553855229E1
 7.267900000000000E9     5.830463794791837E-4   -3.672355245479513E1
 7.267905000000000E9     5.783713473538025E-4   -3.606692909581519E1
 7.267910000000000E9     5.785044975401586E-4   -3.672972956984869E1
 7.267915000000000E9     5.826313306468380E-4   -3.669126854496636E1
 7.267920000000000E9     5.826538858604783E-4   -3.619891577993106E1
 7.267925000000000E9     5.829847057247172E-4   -3.657147259465178E1
 7.267930000000000E9     5.796094867375991E-4   -3.635913816849572E1
 7.267935000000000E9     5.867647385594795E-4   -3.663133477449886E1
 7.267940000000000E9     5.814773045613271E-4   -3.673838228742486E1
 7.267945000000000E9     5.850089473224822E-4   -3.655135291316787E1
 7.267950000000000E9     5.813246191320275E-4   -3.676206070977265E1
 7.267955000000000E9     5.864048779420766E-4   -3.651111731934829E1
 7.267960000000000E9     5.862066794700782E-4   -3.627775337762705E1
 7.267965000000000E9     5.806267629689794E-4   -3.643268681030595E1
 7.267970000000000E9     5.890208469273297E-4   -3.634626827873667E1
 7.267975000000000E9     5.896543625439370E-4   -3.645922728597543E1
 7.267980000000000E9     5.869762364690681E-4   -3.658262136491154E1
 7.267985000000000E9     5.849403120460828E-4   -3.685422766210476E1
 7.267990000000000E9     5.891865336592573E-4   -3.658197689154244E1
 7.267995000000000E9     5.911646991024023E-4   -3.650095056892471E1
 7.268000000000000E9     5.870814175430168E-4   -3.660344939400367E1
 7.268005000000000E9     5.878247857678164E-4   -3.651781356977715E1
 7.268010000000000E9     5.932985299807754E-4   -3.665343268358055E1
 7.268015000000000E9     5.906478813476331E-4   -3.667254354163780E1
 7.268020000000000E9     5.910467399945907E-4   -3.644006943317913E1
 7.268025000000000E9     5.901027279711480E-4   -3.666669779622452E1
 7.268030000000000E9     5.886503006684684E-4   -3.678213995341397E1
 7.268035000000000E9     5.937316288748279E-4   -3.696453938790006E1
 7.268040000000000E9     5.954388527021794E-4   -3.630357751165705E1
 7.268045000000000E9     5.881770448143601E-4   -3.642363406812068E1
 7.268050000000000E9     5.958856079658188E-4   -3.631997074056061E1
 7.268055000000000E9     5.951592189861319E-4   -3.682377967569958E1
 7.268060000000000E9     5.962508623510774E-4   -3.679993254283280E1
 7.268065000000000E9     5.976304182473595E-4   -3.669835570960900E1
 7.268070000000000E9     5.964054074791535E-4   -3.655754194213483E1
 7.268075000000000E9     5.960420477676032E-4   -3.656213703058805E1
 7.268080000000000E9     5.998871856112111E-4   -3.655778439253321E1
 7.268085000000000E9     6.006271504681307E-4   -3.606019845128825E1
 7.268090000000000E9     5.945656116189084E-4   -3.664699076213987E1
 7.268095000000000E9     5.974509803144798E-4   -3.681823677935659E1
 7.268100000000000E9     5.995676345769594E-4   -3.679170630010894E1
 7.268105000000000E9     6.008929413637829E-4   -3.700917272213958E1
 7.268110000000000E9     6.033265879213680E-4   -3.700630714410369E1
 7.268115000000000E9     6.030975794050553E-4   -3.667537740727035E1
 7.268120000000000E9     6.044482592624766E-4   -3.650944971136425E1
 7.268125000000000E9     6.050666327187292E-4   -3.684124694797215E1
 7.268130000000000E9     6.072794347404420E-4   -3.669095636368986E1
 7.268135000000000E9     6.016834752541155E-4   -3.677389515714373E1
 7.268140000000000E9     6.072725809197619E-4   -3.686264463740526E1
 7.268145000000000E9     6.059739754020536E-4   -3.666553609038273E1
 7.268150000000000E9     6.047330025685884E-4   -3.672061724956296E1
 7.268155000000000E9     6.046072735898208E-4   -3.696800179011533E1
 7.268160000000000E9     6.122351421143534E-4   -3.690063640983042E1
 7.268165000000000E9     6.092288767937787E-4   -3.691567910436156E1
 7.268170000000000E9     6.105214182665268E-4   -3.698414141786690E1
 7.268175000000000E9     6.120635830234626E-4   -3.675657577815463E1
 7.268180000000000E9     6.139668352970719E-4   -3.709321777569381E1
 7.268185000000000E9     6.116813912812637E-4   -3.651712887641913E1
 7.268190000000000E9     6.104230796706962E-4   -3.672652063584097E1
 7.268195000000000E9     6.164989732099738E-4   -3.662208577241671E1
 7.268200000000000E9     6.099744517536680E-4   -3.695641117176597E1
 7.268205000000000E9     6.175791409652098E-4   -3.690663370046680E1
 7.268210000000000E9     6.136261988236366E-4   -3.701374666127533E1
 7.268215000000000E9     6.133104895863119E-4   -3.748367285919107E1
 7.268220000000000E9     6.178698662843907E-4   -3.697493845824631E1
 7.268225000000000E9     6.180909204167549E-4   -3.702463609077729E1
 7.268230000000000E9     6.158132420050696E-4   -3.683913025276343E1
 7.268235000000000E9     6.211006588470098E-4   -3.706018008560812E1
 7.268240000000000E9     6.159183089783926E-4   -3.701993178613988E1
 7.268245000000000E9     6.131578851868257E-4   -3.739723748116382E1
 7.268250000000000E9     6.222460122880883E-4   -3.697352958002335E1
 7.268255000000000E9     6.204550047735270E-4   -3.729047588955407E1
 7.268260000000000E9     6.174749194036082E-4   -3.697144036361475E1
 7.268265000000000E9     6.199697046653384E-4   -3.703067050809199E1
 7.268270000000000E9     6.250027123823627E-4   -3.759856653331819E1
 7.268275000000000E9     6.251527513771759E-4   -3.699158560203502E1
 7.268280000000000E9     6.277396750534437E-4   -3.684850182275186E1
 7.268285000000000E9     6.248538312033542E-4   -3.751120383218080E1
 7.268290000000000E9     6.246202224211236E-4   -3.709447492530077E1
 7.268295000000000E9     6.309411645418518E-4   -3.720390509152404E1
 7.268300000000000E9     6.296769477142141E-4   -3.731983435337260E1
 7.268305000000000E9     6.285253488101604E-4   -3.709364383204136E1
 7.268310000000000E9     6.323126796186774E-4   -3.717592466276217E1
 7.268315000000000E9     6.282039731616202E-4   -3.691117890070626E1
 7.268320000000000E9     6.298916782417918E-4   -3.713225408602504E1
 7.268325000000000E9     6.281242739281381E-4   -3.729090016959813E1
 7.268330000000000E9     6.310760340329199E-4   -3.785090956234652E1
 7.268335000000000E9     6.327279318911915E-4   -3.656429542171433E1
 7.268340000000000E9     6.331081186000434E-4   -3.713894047906114E1
 7.268345000000000E9     6.323653259900065E-4   -3.710920436871431E1
 7.268350000000000E9     6.345069364326947E-4   -3.741528566745571E1
 7.268355000000000E9     6.316503087154961E-4   -3.759584928001585E1
 7.268360000000000E9     6.355223235045345E-4   -3.724167161672310E1
 7.268365000000000E9     6.359682508154986E-4   -3.767343879503102E1
 7.268370000000000E9     6.344707845825448E-4   -3.695852800776649E1
 7.268375000000000E9     6.340561973392765E-4   -3.753110595239549E1
 7.268380000000000E9     6.389767055991523E-4   -3.730099270987414E1
 7.268385000000000E9     6.380958558219235E-4   -3.752436405941537E1
 7.268390000000000E9     6.427299781675700E-4   -3.742230927565475E1
 7.268395000000000E9     6.395741789547232E-4   -3.737027952579257E1
 7.268400000000000E9     6.386224274495244E-4   -3.770515708774153E1
 7.268405000000000E9     6.384638687235754E-4   -3.734995992461519E1
 7.268410000000000E9     6.400110456219393E-4   -3.740884892293106E1
 7.268415000000000E9     6.427204550685116E-4   -3.735957991206538E1
 7.268420000000000E9     6.385257746668073E-4   -3.754501618071045E1
 7.268425000000000E9     6.381731694476467E-4   -3.741725887229149E1
 7.268430000000000E9     6.428941569886069E-4   -3.736970605050745E1
 7.268435000000000E9     6.435259523425531E-4   -3.769269910949335E1
 7.268440000000000E9     6.446623801701387E-4   -3.730837621051058E1
 7.268445000000000E9     6.444354707853808E-4   -3.798157847362021E1
 7.268450000000000E9     6.501161288602895E-4   -3.745963238181487E1
 7.268455000000000E9     6.472975463417263E-4   -3.703412082393277E1
 7.268460000000000E9     6.514712437256074E-4   -3.762647059982258E1
 7.268465000000000E9     6.503377068655383E-4   -3.752814408805813E1
 7.268470000000000E9     6.475210776846111E-4   -3.750073730308949E1
 7.268475000000000E9     6.509005746295943E-4   -3.756637145897049E1
 7.268480000000000E9     6.530134670678787E-4   -3.766877732285046E1
 7.268485000000000E9     6.484319973386009E-4   -3.774967522409168E1
 7.268490000000000E9     6.578328448174326E-4   -3.754272946793291E1
 7.268495000000000E9     6.544074583459074E-4   -3.731624469855615E1
 7.268500000000000E9     6.495691330867982E-4   -3.771745981849962E1
 7.268505000000000E9     6.565005696597163E-4   -3.764556277946915E1
 7.268510000000000E9     6.558867954744423E-4   -3.760302618328356E1
 7.268515000000000E9     6.557213445185985E-4   -3.762089787395014E1
 7.268520000000000E9     6.575313405434292E-4   -3.740532864585894E1
 7.268525000000000E9     6.534413228352329E-4   -3.735384122079368E1
 7.268530000000000E9     6.567024319020932E-4   -3.770086083277506E1
 7.268535000000000E9     6.586902811285811E-4   -3.754938925666219E1
 7.268540000000000E9     6.588884499941920E-4   -3.777574820301987E1
 7.268545000000000E9     6.599228195884477E-4   -3.734652879029552E1
 7.268550000000000E9     6.579721968956247E-4   -3.802661587934639E1
 7.268555000000000E9     6.593990077664706E-4   -3.792403390868287E1
 7.268560000000000E9     6.645144254074906E-4   -3.766035136271986E1
 7.268565000000000E9     6.607998978138914E-4   -3.780236376619051E1
 7.268570000000000E9     6.633229793190313E-4   -3.792229053502075E1
 7.268575000000000E9     6.633262140862225E-4   -3.767321219029937E1
 7.268580000000000E9     6.681900471999182E-4   -3.773494758431647E1
 7.268585000000000E9     6.620537334008008E-4   -3.766753721812689E1
 7.268590000000000E9     6.685079441807403E-4   -3.790277507150637E1
 7.268595000000000E9     6.657828929573050E-4   -3.802893578276711E1
 7.268600000000000E9     6.702111544050347E-4   -3.749798473330688E1
 7.268605000000000E9     6.688991713219495E-4   -3.763829019097789E1
 7.268610000000000E9     6.691808843725844E-4   -3.769719037576532E1
 7.268615000000000E9     6.674589012654054E-4   -3.753557237601827E1
 7.268620000000000E9     6.689932107857729E-4   -3.788355253612641E1
 7.268625000000000E9     6.779770837339709E-4   -3.757902840603759E1
 7.268630000000000E9     6.725899651333782E-4   -3.786087038791310E1
 7.268635000000000E9     6.727217051744014E-4   -3.770688434654252E1
 7.268640000000000E9     6.759472820915904E-4   -3.794792341097990E1
 7.268645000000000E9     6.755792776862050E-4   -3.757298543721561E1
 7.268650000000000E9     6.762390957791272E-4   -3.751027716901697E1
 7.268655000000000E9     6.793036145172152E-4   -3.796023838755865E1
 7.268660000000000E9     6.784321733179210E-4   -3.791738800593152E1
 7.268665000000000E9     6.763483575408306E-4   -3.808524770500811E1
 7.268670000000000E9     6.766022859275006E-4   -3.784539842774877E1
 7.268675000000000E9     6.777323437381607E-4   -3.784281179381075E1
 7.268680000000000E9     6.784552649555604E-4   -3.762183173129228E1
 7.268685000000000E9     6.789824293865746E-4   -3.803304770300537E1
 7.268690000000000E9     6.816068323872587E-4   -3.804279644076283E1
 7.268695000000000E9     6.820189166054823E-4   -3.771797589812422E1
 7.268700000000000E9     6.842103357026088E-4   -3.791010176719362E1
 7.268705000000000E9     6.845553843836629E-4   -3.823281151203783E1
 7.268710000000000E9     6.828678952435451E-4   -3.780556864205880E1
 7.268715000000000E9     6.894966917044838E-4   -3.766089891601056E1
 7.268720000000000E9     6.870080624161285E-4   -3.777052484827686E1
 7.268725000000000E9     6.887364285623256E-4   -3.741722790514432E1
 7.268730000000000E9     6.882777504517883E-4   -3.761126902784465E1
 7.268735000000000E9     6.896117672109144E-4   -3.788604576477574E1
 7.268740000000000E9     6.879533166154890E-4   -3.751884281759703E1
 7.268745000000000E9     6.891695821477048E-4   -3.816729571993078E1
 7.268750000000000E9     6.908245645850782E-4   -3.815874776476264E1
 7.268755000000000E9     6.915606106664149E-4   -3.797340704939773E1
 7.268760000000000E9     6.952148765076690E-4   -3.791043303243526E1
 7.268765000000000E9     6.926634602583236E-4   -3.769970941569629E1
 7.268770000000000E9     6.942001744460796E-4   -3.803412484437578E1
 7.268775000000000E9     6.905694877923730E-4   -3.829961937287124E1
 7.268780000000000E9     6.899989332824543E-4   -3.782258615508111E1
 7.268785000000000E9     6.981867368593279E-4   -3.805993167910705E1
 7.268790000000000E9     6.967894464859509E-4   -3.851559637751922E1
 7.268795000000000E9     6.955420510886080E-4   -3.795723039967563E1
 7.268800000000000E9     6.979269595120054E-4   -3.820819508106436E1
 7.268805000000000E9     6.969281033735668E-4   -3.810634826231372E1
 7.268810000000000E9     7.012994803738252E-4   -3.827205884283544E1
 7.268815000000000E9     7.021913779260235E-4   -3.826691949104429E1
 7.268820000000000E9     7.019757872653757E-4   -3.815880878205660E1
 7.268825000000000E9     6.994978504287480E-4   -3.807349139225039E1
 7.268830000000000E9     7.033712401064273E-4   -3.798450790566621E1
 7.268835000000000E9     7.045219985950616E-4   -3.784979133176510E1
 7.268840000000000E9     7.018110644805923E-4   -3.805590639645612E1
 7.268845000000000E9     7.064027926696209E-4   -3.764053443298429E1
 7.268850000000000E9     7.088167134070346E-4   -3.802053079149241E1
 7.268855000000000E9     7.088135079875230E-4   -3.793962815039405E1
 7.268860000000000E9     7.098874804307992E-4   -3.772205059564258E1
 7.268865000000000E9     7.139274945030732E-4   -3.778338542531093E1
 7.268870000000000E9     7.064375637251465E-4   -3.774950705762086E1
 7.268875000000000E9     7.127454047311094E-4   -3.770119146152492E1
 7.268880000000000E9     7.149461508169235E-4   -3.795628238487539E1
 7.268885000000000E9     7.098976329415533E-4   -3.779558219332177E1
 7.268890000000000E9     7.128468831942164E-4   -3.806246536893450E1
 7.268895000000000E9     7.171085127077186E-4   -3.782281469239576E1
 7.268900000000000E9     7.142215257865132E-4   -3.769270815920896E1
 7.268905000000000E9     7.139658736640572E-4   -3.794887050626624E1
 7.268910000000000E9     7.156383271465202E-4   -3.771258129291929E1
 7.268915000000000E9     7.199314806391342E-4   -3.778255971703305E1
 7.268920000000000E9     7.199516767135382E-4   -3.803683736651036E1
 7.268925000000000E9     7.147290794812624E-4   -3.773991511681064E1
 7.268930000000000E9     7.165002557323106E-4   -3.801115998683251E1
 7.268935000000000E9     7.155255916970009E-4   -3.793637319310617E1
 7.268940000000000E9     7.212705318391380E-4   -3.756651265628965E1
 7.268945000000000E9     7.183523390517134E-4   -3.793246423692138E1
 7.268950000000000E9     7.231109060264681E-4   -3.800371159501201E1
 7.268955000000000E9     7.250492652007123E-4   -3.811819550127498E1
 7.268960000000000E9     7.246632024593010E-4   -3.791177191284923E1
 7.268965000000000E9     7.234045629987599E-4   -3.803599005466025E1
 7.268970000000000E9     7.250212522477584E-4   -3.813480048681973E1
 7.268975000000000E9     7.259131588250532E-4   -3.812307389215963E1
 7.268980000000000E9     7.282151258845671E-4   -3.792300340315846E1
 7.268985000000000E9     7.295367717039460E-4   -3.831874823150916E1
 7.268990000000000E9     7.281539505993626E-4   -3.829989922511723E1
 7.268995000000000E9     7.293474428951964E-4   -3.797325572476637E1
 7.269000000000000E9     7.346375279201571E-4   -3.790837281450993E1
 7.269005000000000E9     7.297702071391324E-4   -3.827173142416695E1
 7.269010000000000E9     7.322448154491355E-4   -3.803702038627438E1
 7.269015000000000E9     7.343755909196416E-4   -3.824294505291139E1
 7.269020000000000E9     7.378042700279246E-4   -3.822296550259906E1
 7.269025000000000E9     7.366535105764311E-4   -3.817961504294016E1
 7.269030000000000E9     7.367835491043410E-4   -3.832471714693850E1
 7.269035000000000E9     7.352975642224046E-4   -3.832229653102155E1
 7.269040000000000E9     7.390196672823578E-4   -3.828158053224561E1
 7.269045000000000E9     7.356508196059443E-4   -3.820816761992304E1
 7.269050000000000E9     7.415499560617372E-4   -3.834859699212973E1
 7.269055000000000E9     7.352359225625664E-4   -3.806300375848631E1
 7.269060000000000E9     7.407341790395870E-4   -3.835057228116776E1
 7.269065000000000E9     7.465037239569409E-4   -3.826041369911388E1
 7.269070000000000E9     7.424279646403282E-4   -3.852667457987763E1
 7.269075000000000E9     7.458756155133814E-4   -3.858162284606709E1
 7.269080000000000E9     7.452975021050155E-4   -3.840144503283373E1
 7.269085000000000E9     7.477498694110405E-4   -3.835137319148793E1
 7.269090000000000E9     7.497011176674440E-4   -3.826720705259567E1
 7.269095000000000E9     7.477493318422645E-4   -3.838269035322578E1
 7.269100000000000E9     7.508183719195677E-4   -3.813331113992749E1
 7.269105000000000E9     7.512601757100529E-4   -3.821723515006659E1
 7.269110000000000E9     7.532715917187245E-4   -3.836058350492853E1
 7.269115000000000E9     7.518416798246558E-4   -3.855325423776176E1
 7.269120000000000E9     7.511727704454428E-4   -3.829752255851340E1
 7.269125000000000E9     7.553000198144709E-4   -3.825390285163292E1
 7.269130000000000E9     7.508037938289099E-4   -3.813848350080720E1
 7.269135000000000E9     7.578822219690724E-4   -3.832219038492342E1
 7.269140000000000E9     7.567210027216455E-4   -3.824555672290136E1
 7.269145000000000E9     7.588571214848689E-4   -3.817071233226321E1
 7.269150000000000E9     7.548330189613051E-4   -3.810409717391394E1
 7.269155000000000E9     7.581258884791481E-4   -3.860943309246368E1
 7.269160000000000E9     7.651443235755399E-4   -3.849510722454173E1
 7.269165000000000E9     7.618066977316001E-4   -3.841161720144577E1
 7.269170000000000E9     7.621165635289112E-4   -3.849510544580820E1
 7.269175000000000E9     7.649065099000015E-4   -3.860570847844611E1
 7.269180000000000E9     7.654620254724346E-4   -3.856689975681423E1
 7.269185000000000E9     7.686118184774487E-4   -3.864325214457075E1
 7.269190000000000E9     7.739591513479559E-4   -3.819774235926484E1
 7.269195000000000E9     7.693769640464337E-4   -3.838612878209496E1
 7.269200000000000E9     7.676339170241604E-4   -3.838337648951003E1
 7.269205000000000E9     7.670693048652417E-4   -3.884010568388955E1
 7.269210000000000E9     7.730901464588505E-4   -3.842985346924872E1
 7.269215000000000E9     7.714242723007245E-4   -3.870762325478673E1
 7.269220000000000E9     7.710108401191089E-4   -3.821352952093004E1
 7.269225000000000E9     7.759210049677510E-4   -3.850060516418974E1
 7.269230000000000E9     7.768964952643795E-4   -3.834551525714935E1
 7.269235000000000E9     7.742898523357557E-4   -3.848222716870279E1
 7.269240000000000E9     7.770948301418103E-4   -3.847984246963509E1
 7.269245000000000E9     7.773157238851542E-4   -3.851591106356850E1
 7.269250000000000E9     7.788292819157982E-4   -3.886666967349956E1
 7.269255000000000E9     7.815209615720007E-4   -3.857075692678552E1
 7.269260000000000E9     7.807283653321995E-4   -3.861545857735657E1
 7.269265000000000E9     7.842757072511473E-4   -3.900931943379499E1
 7.269270000000000E9     7.842584775174004E-4   -3.875594567638205E1
 7.269275000000000E9     7.857082178027797E-4   -3.886673153747176E1
 7.269280000000000E9     7.853516958529911E-4   -3.875518120037416E1
 7.269285000000000E9     7.868068852442610E-4   -3.860947158991739E1
 7.269290000000000E9     7.878156639855362E-4   -3.891370803578641E1
 7.269295000000000E9     7.904062662805741E-4   -3.860378704223179E1
 7.269300000000000E9     7.889579493404341E-4   -3.877530410285632E1
 7.269305000000000E9     7.937883420418167E-4   -3.848125957984529E1
 7.269310000000000E9     7.897326366432882E-4   -3.882206927450948E1
 7.269315000000000E9     7.942111812614343E-4   -3.865032062755955E1
 7.269320000000000E9     7.970271322341462E-4   -3.868708364988918E1
 7.269325000000000E9     7.971993331393066E-4   -3.911514260012478E1
 7.269330000000000E9     7.902191073021822E-4   -3.915963911892808E1
 7.269335000000000E9     7.985605819403916E-4   -3.883440439172190E1
 7.269340000000000E9     7.999771001613716E-4   -3.883308608103732E1
 7.269345000000000E9     8.008628667908964E-4   -3.866708143127332E1
 7.269350000000000E9     8.023501323402327E-4   -3.880860428176121E1
 7.269355000000000E9     8.016732247034673E-4   -3.892387969846700E1
 7.269360000000000E9     8.027167738798731E-4   -3.917522250322065E1
 7.269365000000000E9     7.993999634744865E-4   -3.865038963722120E1
 7.269370000000000E9     8.077544871170415E-4   -3.900520073412093E1
 7.269375000000000E9     8.045811461596610E-4   -3.903959710599791E1
 7.269380000000000E9     8.066609934998796E-4   -3.922613622678196E1
 7.269385000000000E9     8.134954374154924E-4   -3.916380183470142E1
 7.269390000000000E9     8.121900899361528E-4   -3.907497195623826E1
 7.269395000000000E9     8.109676015332063E-4   -3.891093781838957E1
 7.269400000000000E9     8.143534257743641E-4   -3.912604253713551E1
 7.269405000000000E9     8.091974064032460E-4   -3.912348350437395E1
 7.269410000000000E9     8.159329347055691E-4   -3.921754540333389E1
 7.269415000000000E9     8.179360981156868E-4   -3.905253385057498E1
 7.269420000000000E9     8.188853895259079E-4   -3.910077698318738E1
 7.269425000000000E9     8.207233092010040E-4   -3.887311397668207E1
 7.269430000000000E9     8.176579362771077E-4   -3.900517604663670E1
 7.269435000000000E9     8.203197443291165E-4   -3.890505796644977E1
 7.269440000000000E9     8.236412037137218E-4   -3.929097886709844E1
 7.269445000000000E9     8.229993641255144E-4   -3.939580664095928E1
 7.269450000000000E9     8.245820854770770E-4   -3.898676375488130E1
 7.269455000000000E9     8.229416220230967E-4   -3.936961547951947E1
 7.269460000000000E9     8.219701272595080E-4   -3.935714683125423E1
 7.269465000000000E9     8.251023418561457E-4   -3.924829962315978E1
 7.269470000000000E9     8.286783203891155E-4   -3.938640564578034E1
 7.269475000000000E9     8.282334901619960E-4   -3.902844224651676E1
 7.269480000000000E9     8.321141450934128E-4   -3.923393947906005E1
 7.269485000000000E9     8.342163478245510E-4   -3.936974338410306E1
 7.269490000000000E9     8.316156595861707E-4   -3.950969501820292E1
 7.269495000000000E9     8.322418085907285E-4   -3.942870687992072E1
 7.269500000000000E9     8.341958443363385E-4   -3.952651452195345E1
 7.269505000000000E9     8.340395434516067E-4   -3.909293116293929E1
 7.269510000000000E9     8.374773045735460E-4   -3.946710134222258E1
 7.269515000000000E9     8.395536685093640E-4   -3.914995565731075E1
 7.269520000000000E9     8.397463145702079E-4   -3.894913874010764E1
 7.269525000000000E9     8.395106800381636E-4   -3.914757736377073E1
 7.269530000000000E9     8.445548986773225E-4   -3.946745290206858E1
 7.269535000000000E9     8.360917449732685E-4   -3.946686849672837E1
 7.269540000000000E9     8.440201758201046E-4   -3.900561668389324E1
 7.269545000000000E9     8.445366117501668E-4   -3.941127577242462E1
 7.269550000000000E9     8.467367723957307E-4   -3.947644025550488E1
 7.269555000000000E9     8.483115331501243E-4   -3.936201802489246E1
 7.269560000000000E9     8.487239972316821E-4   -3.944976328497355E1
 7.269565000000000E9     8.514936618063971E-4   -3.958270483699344E1
 7.269570000000000E9     8.504212390976467E-4   -3.927203279868866E1
 7.269575000000000E9     8.531889282986682E-4   -3.962876043667367E1
 7.269580000000000E9     8.537909265274563E-4   -3.926117393358307E1
 7.269585000000000E9     8.576874773255105E-4   -3.963941833940510E1
 7.269590000000000E9     8.561246525942757E-4   -3.923370796897715E1
 7.269595000000000E9     8.586914516201006E-4   -3.977347985076626E1
 7.269600000000000E9     8.582324129491167E-4   -3.959321184158527E1
 7.269605000000000E9     8.639131101335250E-4   -3.974845596350588E1
 7.269610000000000E9     8.605685262043654E-4   -3.945971211034052E1
 7.269615000000000E9     8.641889406636557E-4   -3.950308547282469E1
 7.269620000000000E9     8.640554907685448E-4   -3.977329766587436E1
 7.269625000000000E9     8.665107839181610E-4   -3.972918321870505E1
 7.269630000000000E9     8.644468608228047E-4   -3.949550349985257E1
 7.269635000000000E9     8.659817816494723E-4   -3.980400132242170E1
 7.269640000000000E9     8.717232929102884E-4   -3.975568421972852E1
 7.269645000000000E9     8.696524669261310E-4   -3.977339661192102E1
 7.269650000000000E9     8.736557995024932E-4   -3.990916947387899E1
 7.269655000000000E9     8.708153886081145E-4   -3.964473883675707E1
 7.269660000000000E9     8.753238540104895E-4   -3.973219984802957E1
 7.269665000000000E9     8.729446879066221E-4   -3.951365151522656E1
 7.269670000000000E9     8.786237234137976E-4   -3.974557824962899E1
 7.269675000000000E9     8.785879835320729E-4   -3.966377601713418E1
 7.269680000000000E9     8.757511119374244E-4   -3.972181962879258E1
 7.269685000000000E9     8.811976648135908E-4   -3.973749713237923E1
 7.269690000000000E9     8.864228494851229E-4   -4.001900555419159E1
 7.269695000000000E9     8.799419762064758E-4   -3.965807430447001E1
 7.269700000000000E9     8.860720412891725E-4   -3.973013920727853E1
 7.269705000000000E9     8.878735782452467E-4   -3.972343045015619E1
 7.269710000000000E9     8.871287850467136E-4   -3.955086912841146E1
 7.269715000000000E9     8.888057697536778E-4   -3.992983474958738E1
 7.269720000000000E9     8.934715057232357E-4   -3.963341826733874E1
 7.269725000000000E9     8.912715497992326E-4   -4.009459127201276E1
 7.269730000000000E9     8.947723659412486E-4   -3.958870684103212E1
 7.269735000000000E9     8.908590402692330E-4   -3.996497174059076E1
 7.269740000000000E9     8.959112284687674E-4   -3.976704363451280E1
 7.269745000000000E9     8.957174719884844E-4   -3.988593313155607E1
 7.269750000000000E9     8.979169712508766E-4   -4.005577812739234E1
 7.269755000000000E9     9.010302152588071E-4   -4.003967843572053E1
 7.269760000000000E9     9.052598110893718E-4   -3.964252623888756E1
 7.269765000000000E9     9.012504769806263E-4   -4.008863398708471E1
 7.269770000000000E9     9.051823588136412E-4   -4.010733008184798E1
 7.269775000000000E9     9.049463339154291E-4   -3.998251750625817E1
 7.269780000000000E9     9.019096570021163E-4   -3.999906176094242E1
 7.269785000000000E9     9.065211009138458E-4   -3.974995839470892E1
 7.269790000000000E9     9.120301169409467E-4   -3.998752145999166E1
 7.269795000000000E9     9.104971780047047E-4   -4.017041979054964E1
 7.269800000000000E9     9.133302073751132E-4   -3.991372482445136E1
 7.269805000000000E9     9.146429746349412E-4   -4.029745812521411E1
 7.269810000000000E9     9.148497834414968E-4   -3.996744825197038E1
 7.269815000000000E9     9.207920686735797E-4   -3.986797294369885E1
 7.269820000000000E9     9.184935776252008E-4   -4.015009643663155E1
 7.269825000000000E9     9.179644024651234E-4   -4.016196077402587E1
 7.269830000000000E9     9.230705275478772E-4   -4.006321677698160E1
 7.269835000000000E9     9.266261354399001E-4   -4.008511860310346E1
 7.269840000000000E9     9.237709392199280E-4   -4.019972210512922E1
 7.269845000000000E9     9.252058494757742E-4   -4.016371714886817E1
 7.269850000000000E9     9.272780813864097E-4   -4.033583101753068E1
 7.269855000000000E9     9.284025791705312E-4   -4.039757422441995E1
 7.269860000000000E9     9.333271531758482E-4   -4.035939192395663E1
 7.269865000000000E9     9.342956896217422E-4   -4.037316169078089E1
 7.269870000000000E9     9.342117296955846E-4   -4.047477687020758E1
 7.269875000000000E9     9.341164149268135E-4   -4.043885887765013E1
 7.269880000000000E9     9.354829080338182E-4   -4.064272855586199E1
 7.269885000000000E9     9.395447106562997E-4   -4.053511652457681E1
 7.269890000000000E9     9.334877658563689E-4   -4.033261147036673E1
 7.269895000000000E9     9.439542787313274E-4   -4.072583942540444E1
 7.269900000000000E9     9.396337857847076E-4   -4.053232152351644E1
 7.269905000000000E9     9.416194376460723E-4   -4.050232893601278E1
 7.269910000000000E9     9.447507540927985E-4   -4.029556352362600E1
 7.269915000000000E9     9.480489474159501E-4   -4.052370722727407E1
 7.269920000000000E9     9.469588605771604E-4   -4.021402409442912E1
 7.269925000000000E9     9.463943886142555E-4   -4.036219559273728E1
 7.269930000000000E9     9.487759075369509E-4   -4.047602665310951E1
 7.269935000000000E9     9.500315641060484E-4   -4.034088185251228E1
 7.269940000000000E9     9.569761607958343E-4   -4.054036446253553E1
 7.269945000000000E9     9.558763235253506E-4   -4.011211469963656E1
 7.269950000000000E9     9.538727550486146E-4   -4.045456665124066E1
 7.269955000000000E9     9.624831446823160E-4   -4.046165697151907E1
 7.269960000000000E9     9.640751463813982E-4   -4.045339172045142E1
 7.269965000000000E9     9.624589846956122E-4   -4.060735508805976E1
 7.269970000000000E9     9.649875919889471E-4   -4.075075152927660E1
 7.269975000000000E9     9.665634760254465E-4   -4.030997189473081E1
 7.269980000000000E9     9.663885030607747E-4   -4.030696648433125E1
 7.269985000000000E9     9.688917500979751E-4   -4.064596311916449E1
 7.269990000000000E9     9.694703331622644E-4   -4.051756160868322E1
 7.269995000000000E9     9.703008838982733E-4   -4.056826699011058E1
 7.270000000000000E9     9.701976796243906E-4   -4.066499008165929E1
 7.270005000000000E9     9.782697014256310E-4   -4.061876386396791E1
 7.270010000000000E9     9.733886558231597E-4   -4.064016429733279E1
 7.270015000000000E9     9.768586813093756E-4   -4.069693030433884E1
 7.270020000000000E9     9.771188534847871E-4   -4.071425223255831E1
 7.270025000000000E9     9.805446590208800E-4   -4.065404869094790E1
 7.270030000000000E9     9.842163913055361E-4   -4.074814787649086E1
 7.270035000000000E9     9.851976254889381E-4   -4.063843451214208E1
 7.270040000000000E9     9.802601690665172E-4   -4.069979725197901E1
 7.270045000000000E9     9.887756114264862E-4   -4.063606301677211E1
 7.270050000000000E9     9.960757768784987E-4   -4.067696578625828E1
 7.270055000000000E9     9.928078917772632E-4   -4.097419188509485E1
 7.270060000000000E9     9.921496590485370E-4   -4.072914555471104E1
 7.270065000000000E9     9.957545565576565E-4   -4.070357468525257E1
 7.270070000000000E9     9.989285288529647E-4   -4.058878721330775E1
 7.270075000000000E9     1.001011668048031E-3   -4.074067260929255E1
 7.270080000000000E9     1.000865687197287E-3   -4.099882053812973E1
 7.270085000000000E9     1.002698335462474E-3   -4.091678594925504E1
 7.270090000000000E9     9.983734069802883E-4   -4.100996046852927E1
 7.270095000000000E9     9.990330400156990E-4   -4.074585537604766E1
 7.270100000000000E9     1.005913331031023E-3   -4.074947600808109E1
 7.270105000000000E9     1.006191896662030E-3   -4.100731489702451E1
 7.270110000000000E9     1.013976221498233E-3   -4.094459584738893E1
 7.270115000000000E9     1.009368373159815E-3   -4.080836276066005E1
 7.270120000000000E9     1.013975223773518E-3   -4.106650151835475E1
 7.270125000000000E9     1.015087033323439E-3   -4.102200200592098E1
 7.270130000000000E9     1.018676289246307E-3   -4.100319699771504E1
 7.270135000000000E9     1.020367865989353E-3   -4.091485134404054E1
 7.270140000000000E9     1.020598324852588E-3   -4.094259918205755E1
 7.270145000000000E9     1.020798764565434E-3   -4.089427625398783E1
 7.270150000000000E9     1.027411650668102E-3   -4.124252687536587E1
 7.270155000000000E9     1.030481491458228E-3   -4.082655121943888E1
 7.270160000000000E9     1.021589229235512E-3   -4.126007969824882E1
 7.270165000000000E9     1.030760846254931E-3   -4.111418288983502E1
 7.270170000000000E9     1.031127899268099E-3   -4.107267803856206E1
 7.270175000000000E9     1.033738376269886E-3   -4.114105297927923E1
 7.270180000000000E9     1.037505484576642E-3   -4.117708141917190E1
 7.270185000000000E9     1.033780762549950E-3   -4.122309194801223E1
 7.270190000000000E9     1.036748869526484E-3   -4.115448482554698E1
 7.270195000000000E9     1.038147785828370E-3   -4.130969193709674E1
 7.270200000000000E9     1.042764936675237E-3   -4.096945322537437E1
 7.270205000000000E9     1.039761912016176E-3   -4.127844461554662E1
 7.270210000000000E9     1.046683109663505E-3   -4.136261506556273E1
 7.270215000000000E9     1.046902504316988E-3   -4.112644932769884E1
 7.270220000000000E9     1.049242625789782E-3   -4.111370223116909E1
 7.270225000000000E9     1.053143348617459E-3   -4.120854803918292E1
 7.270230000000000E9     1.054994799670805E-3   -4.103699815309420E1
 7.270235000000000E9     1.051307892668285E-3   -4.126417696818030E1
 7.270240000000000E9     1.059274993394037E-3   -4.145393953480809E1
 7.270245000000000E9     1.060097583197137E-3   -4.131702295317755E1
 7.270250000000000E9     1.058155341275863E-3   -4.137811629570623E1
 7.270255000000000E9     1.064218197905295E-3   -4.112404918019468E1
 7.270260000000000E9     1.062943099059571E-3   -4.165155465795091E1
 7.270265000000000E9     1.064564128564042E-3   -4.146877172181808E1
 7.270270000000000E9     1.067253590036583E-3   -4.149376722783737E1
 7.270275000000000E9     1.070713763020731E-3   -4.145116295889076E1
 7.270280000000000E9     1.071735134558281E-3   -4.122553062352609E1
 7.270285000000000E9     1.076375594367026E-3   -4.139008479663200E1
 7.270290000000000E9     1.079478987873068E-3   -4.151476759415885E1
 7.270295000000000E9     1.081106810769854E-3   -4.158134786550858E1
 7.270300000000000E9     1.077491616577387E-3   -4.156168243403062E1
 7.270305000000000E9     1.081230510675675E-3   -4.184468240191395E1
 7.270310000000000E9     1.083970955300570E-3   -4.160953124358644E1
 7.270315000000000E9     1.085271514482887E-3   -4.174307122777878E1
 7.270320000000000E9     1.086517209504698E-3   -4.168610250524720E1
 7.270325000000000E9     1.094049595378755E-3   -4.190277680189572E1
 7.270330000000000E9     1.092682396939862E-3   -4.162000058662401E1
 7.270335000000000E9     1.093101212400503E-3   -4.179943427591063E1
 7.270340000000000E9     1.096577231600009E-3   -4.175646962225151E1
 7.270345000000000E9     1.100589963386778E-3   -4.170573127756796E1
 7.270350000000000E9     1.099045379363954E-3   -4.166414894905297E1
 7.270355000000000E9     1.101637208858148E-3   -4.174534196549333E1
 7.270360000000000E9     1.108957668632926E-3   -4.192747783890319E1
 7.270365000000000E9     1.108695485900213E-3   -4.183027794510051E1
 7.270370000000000E9     1.107452003038519E-3   -4.213902037515997E1
 7.270375000000000E9     1.111760983470496E-3   -4.196669232292157E1
 7.270380000000000E9     1.113042489524668E-3   -4.186591992350017E1
 7.270385000000000E9     1.113595986167525E-3   -4.206606553029233E1
 7.270390000000000E9     1.118453559192354E-3   -4.210388674525741E1
 7.270395000000000E9     1.119068637909906E-3   -4.189088604418621E1
 7.270400000000000E9     1.123911615623231E-3   -4.213012299196322E1
 7.270405000000000E9     1.120488381367087E-3   -4.213562654646981E1
 7.270410000000000E9     1.128617009973088E-3   -4.211429821792273E1
 7.270415000000000E9     1.130664277709297E-3   -4.223285078923983E1
 7.270420000000000E9     1.133627157774984E-3   -4.209180731456693E1
 7.270425000000000E9     1.130578245162207E-3   -4.209999005533298E1
 7.270430000000000E9     1.136917572679072E-3   -4.211634700886120E1
 7.270435000000000E9     1.134400921638349E-3   -4.222057330429178E1
 7.270440000000000E9     1.142788147054083E-3   -4.208953767562723E1
 7.270445000000000E9     1.144087174907362E-3   -4.251445580975131E1
 7.270450000000000E9     1.142993747655820E-3   -4.214111273766823E1
 7.270455000000000E9     1.147222789262510E-3   -4.255763246434373E1
 7.270460000000000E9     1.149648539555677E-3   -4.224178422941924E1
 7.270465000000000E9     1.149943186919176E-3   -4.219620924742657E1
 7.270470000000000E9     1.152373666530169E-3   -4.239322979641933E1
 7.270475000000000E9     1.157706344388894E-3   -4.241500777558342E1
 7.270480000000000E9     1.156440695505698E-3   -4.248905820802814E1
 7.270485000000000E9     1.160760263751918E-3   -4.238488126496402E1
 7.270490000000000E9     1.162587041794269E-3   -4.242360738214685E1
 7.270495000000000E9     1.163830982515503E-3   -4.244736203130737E1
 7.270500000000000E9     1.167579929123340E-3   -4.257954750116499E1
 7.270505000000000E9     1.168478112991472E-3   -4.254886145454446E1
 7.270510000000000E9     1.172940002963129E-3   -4.265938360341988E1
 7.270515000000000E9     1.173741339970025E-3   -4.272554870587324E1
 7.270520000000000E9     1.176488975355440E-3   -4.243166497464350E1
 7.270525000000000E9     1.180007149827258E-3   -4.247073742995006E1
 7.270530000000000E9     1.180845272229518E-3   -4.262454583799217E1
 7.270535000000000E9     1.183487955277283E-3   -4.280110979573398E1
 7.270540000000000E9     1.184884116422277E-3   -4.254192725061258E1
 7.270545000000000E9     1.189995351907546E-3   -4.270722086042782E1
 7.270550000000000E9     1.189132547834110E-3   -4.284163408266518E1
 7.270555000000000E9     1.190923231742082E-3   -4.279227828003253E1
 7.270560000000000E9     1.194152760276858E-3   -4.279831033212004E1
 7.270565000000000E9     1.199983298363345E-3   -4.285165605853572E1
 7.270570000000000E9     1.200157856972999E-3   -4.295934611995562E1
 7.270575000000000E9     1.202314386025373E-3   -4.277202021205880E1
 7.270580000000000E9     1.205363416866328E-3   -4.285624781376443E1
 7.270585000000000E9     1.209284247321271E-3   -4.288428810365530E1
 7.270590000000000E9     1.204601626663643E-3   -4.296392216629904E1
 7.270595000000000E9     1.210654014298851E-3   -4.291509115818592E1
 7.270600000000000E9     1.218970095512842E-3   -4.299843249778853E1
 7.270605000000000E9     1.218688127806538E-3   -4.283185027660896E1
 7.270610000000000E9     1.224646877272901E-3   -4.302462356633760E1
 7.270615000000000E9     1.222173562221236E-3   -4.303533038348220E1
 7.270620000000000E9     1.222137238284606E-3   -4.300914467041681E1
 7.270625000000000E9     1.227489483831268E-3   -4.300253237247163E1
 7.270630000000000E9     1.228720684260942E-3   -4.299568698186482E1
 7.270635000000000E9     1.234522831629721E-3   -4.330940419929425E1
 7.270640000000000E9     1.242065675707092E-3   -4.320456689229795E1
 7.270645000000000E9     1.241605498061917E-3   -4.320292429437823E1
 7.270650000000000E9     1.243513772053918E-3   -4.330258965697740E1
 7.270655000000000E9     1.246707475326853E-3   -4.337082973204962E1
 7.270660000000000E9     1.249071757092269E-3   -4.344507050795070E1
 7.270665000000000E9     1.253871488587915E-3   -4.332603194598266E1
 7.270670000000000E9     1.255687016910457E-3   -4.347406563040285E1
 7.270675000000000E9     1.254419660283330E-3   -4.349130704479334E1
 7.270680000000000E9     1.255439301052220E-3   -4.364444854015419E1
 7.270685000000000E9     1.261226716939434E-3   -4.341580747438369E1
 7.270690000000000E9     1.259637343967916E-3   -4.347101770392801E1
 7.270695000000000E9     1.264134472333194E-3   -4.359241472708574E1
 7.270700000000000E9     1.268092853246423E-3   -4.343156911218519E1
 7.270705000000000E9     1.275691408154077E-3   -4.347587793163669E1
 7.270710000000000E9     1.272492202301882E-3   -4.366216708528172E1
 7.270715000000000E9     1.277290613657845E-3   -4.355102293863903E1
 7.270720000000000E9     1.282024502811489E-3   -4.374004564641607E1
 7.270725000000000E9     1.281373627293354E-3   -4.363206796069590E1
 7.270730000000000E9     1.284552095058259E-3   -4.364472815259047E1
 7.270735000000000E9     1.291479716468166E-3   -4.362650923018035E1
 7.270740000000000E9     1.291464213377317E-3   -4.355363136685403E1
 7.270745000000000E9     1.297320310633038E-3   -4.359187177027201E1
 7.270750000000000E9     1.296148468665106E-3   -4.374003830719884E1
 7.270755000000000E9     1.300345882803223E-3   -4.379258973379353E1
 7.270760000000000E9     1.296797579671924E-3   -4.397555841664399E1
 7.270765000000000E9     1.308411884291531E-3   -4.383873617167093E1
 7.270770000000000E9     1.308084031583162E-3   -4.413878770325758E1
 7.270775000000000E9     1.313624898706332E-3   -4.390284212296818E1
 7.270780000000000E9     1.315835144528964E-3   -4.401689094021323E1
 7.270785000000000E9     1.321226835034267E-3   -4.425072600721501E1
 7.270790000000000E9     1.322289088711924E-3   -4.370328108026850E1
 7.270795000000000E9     1.318977788096201E-3   -4.417816660653199E1
 7.270800000000000E9     1.323504056101771E-3   -4.421528944593771E1
 7.270805000000000E9     1.328689566554611E-3   -4.410461205912155E1
 7.270810000000000E9     1.338109836497441E-3   -4.425817120197058E1
 7.270815000000000E9     1.337067861686325E-3   -4.433060238295979E1
 7.270820000000000E9     1.342642283533272E-3   -4.425745219278357E1
 7.270825000000000E9     1.340385084882007E-3   -4.404953298818955E1
 7.270830000000000E9     1.343835983072458E-3   -4.423603364556102E1
 7.270835000000000E9     1.351475647922191E-3   -4.432823491938190E1
 7.270840000000000E9     1.349669742909650E-3   -4.435657767739497E1
 7.270845000000000E9     1.356645394556100E-3   -4.447427436812933E1
 7.270850000000000E9     1.354978125387309E-3   -4.448528410018111E1
 7.270855000000000E9     1.360834604813653E-3   -4.440702587275048E1
 7.270860000000000E9     1.361015545413267E-3   -4.445461120922690E1
 7.270865000000000E9     1.364975683336456E-3   -4.447111991431164E1
 7.270870000000000E9     1.369380976512604E-3   -4.452617290198803E1
 7.270875000000000E9     1.373370453074357E-3   -4.451812136211115E1
 7.270880000000000E9     1.375771018210684E-3   -4.454713307434046E1
 7.270885000000000E9     1.378813305728268E-3   -4.456521660360509E1
 7.270890000000000E9     1.381478844919401E-3   -4.486944491806535E1
 7.270895000000000E9     1.387092837864088E-3   -4.478989790604638E1
 7.270900000000000E9     1.389186636092618E-3   -4.450261455738097E1
 7.270905000000000E9     1.394850305585073E-3   -4.474107052704403E1
 7.270910000000000E9     1.398028448460912E-3   -4.486107185953852E1
 7.270915000000000E9     1.402757435859762E-3   -4.487184498144361E1
 7.270920000000000E9     1.399891932610260E-3   -4.489412076594248E1
 7.270925000000000E9     1.412427328278907E-3   -4.472711891599726E1
 7.270930000000000E9     1.411556149032337E-3   -4.481408048844717E1
 7.270935000000000E9     1.412059706092202E-3   -4.476584272025789E1
 7.270940000000000E9     1.418570546067501E-3   -4.500813605344742E1
 7.270945000000000E9     1.419793772648348E-3   -4.504004958043306E1
 7.270950000000000E9     1.425603063422811E-3   -4.480843394368691E1
 7.270955000000000E9     1.432463174389538E-3   -4.496807659168992E1
 7.270960000000000E9     1.431483581719873E-3   -4.500500070081040E1
 7.270965000000000E9     1.435717729817521E-3   -4.530188025417324E1
 7.270970000000000E9     1.440304005800168E-3   -4.516549494308610E1
 7.270975000000000E9     1.441567725689577E-3   -4.526692748502546E1
 7.270980000000000E9     1.442975709195503E-3   -4.510888862585104E1
 7.270985000000000E9     1.444110372578470E-3   -4.518046810765448E1
 7.270990000000000E9     1.451436374880227E-3   -4.530864201490107E1
 7.270995000000000E9     1.458054935501751E-3   -4.535730587856300E1
 7.271000000000000E9     1.460604058968609E-3   -4.534846244764641E1
 7.271005000000000E9     1.460508844532775E-3   -4.532409165325084E1
 7.271010000000000E9     1.465655834540859E-3   -4.548509283471739E1
 7.271015000000000E9     1.470872432512048E-3   -4.545017367637637E1
 7.271020000000000E9     1.476571046486381E-3   -4.545931636148364E1
 7.271025000000000E9     1.479125921336924E-3   -4.578000154657426E1
 7.271030000000000E9     1.483291406836959E-3   -4.559485410690272E1
 7.271035000000000E9     1.486001100618246E-3   -4.563569449333768E1
 7.271040000000000E9     1.495017085579744E-3   -4.561759983289889E1
 7.271045000000000E9     1.498538916343919E-3   -4.581694782657091E1
 7.271050000000000E9     1.496086442031694E-3   -4.584078223212889E1
 7.271055000000000E9     1.500101398413219E-3   -4.574659343936445E1
 7.271060000000000E9     1.508508230384407E-3   -4.583531106087069E1
 7.271065000000000E9     1.506657382881435E-3   -4.590860327154905E1
 7.271070000000000E9     1.512165950262016E-3   -4.593328085652735E1
 7.271075000000000E9     1.517923202507489E-3   -4.594980492291224E1
 7.271080000000000E9     1.517547586468233E-3   -4.601208594487481E1
 7.271085000000000E9     1.522516071279869E-3   -4.603804821364454E1
 7.271090000000000E9     1.531257915420551E-3   -4.593904235384177E1
 7.271095000000000E9     1.531293621947281E-3   -4.607491271337318E1
 7.271100000000000E9     1.538093916381529E-3   -4.614045803661650E1
 7.271105000000000E9     1.540199061307347E-3   -4.611134934407414E1
 7.271110000000000E9     1.545533352873340E-3   -4.611746158747836E1
 7.271115000000000E9     1.550356538383921E-3   -4.617124470753938E1
 7.271120000000000E9     1.556142056644123E-3   -4.621964438516133E1
 7.271125000000000E9     1.554705253741879E-3   -4.634385496089020E1
 7.271130000000000E9     1.564532691316761E-3   -4.638219797306196E1
 7.271135000000000E9     1.565499486295333E-3   -4.624717365303099E1
 7.271140000000000E9     1.566399166764765E-3   -4.646033987421526E1
 7.271145000000000E9     1.571096847193151E-3   -4.636345532214452E1
 7.271150000000000E9     1.581982725015397E-3   -4.649673308849131E1
 7.271155000000000E9     1.585643003257970E-3   -4.651633123449206E1
 7.271160000000000E9     1.587237436374167E-3   -4.636490194101769E1
 7.271165000000000E9     1.592003801057231E-3   -4.651243259374046E1
 7.271170000000000E9     1.593220857388606E-3   -4.655838341139097E1
 7.271175000000000E9     1.603154269495146E-3   -4.660595043591179E1
 7.271180000000000E9     1.604539718129011E-3   -4.669606009908782E1
 7.271185000000000E9     1.612252863630601E-3   -4.667382179288754E1
 7.271190000000000E9     1.615795060856535E-3   -4.689256147051763E1
 7.271195000000000E9     1.618928477876348E-3   -4.682700544132450E1
 7.271200000000000E9     1.621737731148242E-3   -4.693279924623524E1
 7.271205000000000E9     1.625545625905304E-3   -4.674964700564537E1
 7.271210000000000E9     1.631117898077345E-3   -4.700917399760390E1
 7.271215000000000E9     1.633841916605662E-3   -4.702842533061891E1
 7.271220000000000E9     1.641897905324762E-3   -4.697160746349862E1
 7.271225000000000E9     1.643006702475567E-3   -4.711126649412987E1
 7.271230000000000E9     1.654630301170224E-3   -4.699756953415535E1
 7.271235000000000E9     1.656147906206748E-3   -4.722150897548708E1
 7.271240000000000E9     1.655921998403557E-3   -4.725368696357940E1
 7.271245000000000E9     1.666004016950882E-3   -4.735310404373647E1
 7.271250000000000E9     1.670328725958159E-3   -4.740462951880662E1
 7.271255000000000E9     1.671927068481322E-3   -4.751886316201881E1
 7.271260000000000E9     1.677530438918333E-3   -4.754213933137303E1
 7.271265000000000E9     1.681624563147146E-3   -4.735778647746822E1
 7.271270000000000E9     1.688562052817592E-3   -4.767532186243784E1
 7.271275000000000E9     1.697526776248010E-3   -4.750100746678519E1
 7.271280000000000E9     1.697185072001778E-3   -4.767085438809664E1
 7.271285000000000E9     1.705192324749605E-3   -4.769818531858895E1
 7.271290000000000E9     1.709839670124070E-3   -4.774599158288876E1
 7.271295000000000E9     1.711141593200885E-3   -4.760799108528290E1
 7.271300000000000E9     1.719596833167100E-3   -4.785808594193805E1
 7.271305000000000E9     1.721880647911287E-3   -4.793295341597374E1
 7.271310000000000E9     1.729306203867095E-3   -4.782876739012767E1
 7.271315000000000E9     1.734729569032609E-3   -4.787446412128582E1
 7.271320000000000E9     1.738418961311830E-3   -4.795535582001563E1
 7.271325000000000E9     1.745239133762679E-3   -4.809883158253264E1
 7.271330000000000E9     1.746682665321706E-3   -4.826629314939880E1
 7.271335000000000E9     1.754207466837679E-3   -4.817300520249529E1
 7.271340000000000E9     1.760355959591387E-3   -4.811919576078427E1
 7.271345000000000E9     1.763773282930057E-3   -4.818600553625066E1
 7.271350000000000E9     1.770784123921909E-3   -4.820914251976113E1
 7.271355000000000E9     1.771333132743704E-3   -4.830677889427935E1
 7.271360000000000E9     1.781932258665245E-3   -4.841330398968287E1
 7.271365000000000E9     1.787156347076127E-3   -4.853874153383886E1
 7.271370000000000E9     1.792229209476351E-3   -4.844512020760762E1
 7.271375000000000E9     1.796330119134423E-3   -4.854029254458435E1
 7.271380000000000E9     1.801695636406619E-3   -4.868377027654675E1
 7.271385000000000E9     1.806447191799052E-3   -4.867197269618569E1
 7.271390000000000E9     1.811955886372170E-3   -4.884921714829564E1
 7.271395000000000E9     1.816801777177186E-3   -4.879050208157311E1
 7.271400000000000E9     1.822604061468801E-3   -4.890597065025089E1
 7.271405000000000E9     1.828045140736024E-3   -4.882999105927390E1
 7.271410000000000E9     1.838580077322613E-3   -4.901314332671824E1
 7.271415000000000E9     1.846217418128496E-3   -4.897435968239463E1
 7.271420000000000E9     1.850687080365335E-3   -4.912240310981878E1
 7.271425000000000E9     1.853321561709960E-3   -4.912651852001394E1
 7.271430000000000E9     1.859819459283676E-3   -4.926142604988496E1
 7.271435000000000E9     1.862116037311789E-3   -4.907452216645744E1
 7.271440000000000E9     1.868110921555519E-3   -4.930986326351329E1
 7.271445000000000E9     1.876556395921329E-3   -4.937109785850566E1
 7.271450000000000E9     1.883372094008281E-3   -4.943954028147800E1
 7.271455000000000E9     1.891921849797752E-3   -4.963050021062079E1
 7.271460000000000E9     1.897489918820943E-3   -4.957385418172344E1
 7.271465000000000E9     1.904359895913135E-3   -4.960045576561254E1
 7.271470000000000E9     1.909430515026894E-3   -4.968630278151855E1
 7.271475000000000E9     1.912468705870580E-3   -4.966493246627152E1
 7.271480000000000E9     1.918816086456466E-3   -4.979981363089464E1
 7.271485000000000E9     1.928073881163032E-3   -4.988493801825675E1
 7.271490000000000E9     1.933971388354031E-3   -4.990725681012572E1
 7.271495000000000E9     1.940742491291899E-3   -4.988178582922168E1
 7.271500000000000E9     1.945776209630524E-3   -4.998232061067069E1
 7.271505000000000E9     1.951879682897169E-3   -4.997367769966699E1
 7.271510000000000E9     1.961823865946680E-3   -5.008397529065746E1
 7.271515000000000E9     1.962533185310591E-3   -5.029908655452623E1
 7.271520000000000E9     1.968887090064261E-3   -5.026327076761402E1
 7.271525000000000E9     1.974437980278558E-3   -5.044911302670866E1
 7.271530000000000E9     1.985675419806826E-3   -5.032969487422485E1
 7.271535000000000E9     1.989877865005019E-3   -5.058424240520135E1
 7.271540000000000E9     1.998797236682811E-3   -5.051111122126898E1
 7.271545000000000E9     2.006132295563652E-3   -5.071974868296596E1
 7.271550000000000E9     2.011295229446174E-3   -5.058060271611296E1
 7.271555000000000E9     2.019567606068079E-3   -5.080722431917540E1
 7.271560000000000E9     2.028295195162861E-3   -5.075950399224757E1
 7.271565000000000E9     2.038494508616534E-3   -5.089518766796438E1
 7.271570000000000E9     2.039145021303851E-3   -5.099785654891944E1
 7.271575000000000E9     2.049075226944959E-3   -5.097600863194162E1
 7.271580000000000E9     2.056290541422622E-3   -5.105319172343243E1
 7.271585000000000E9     2.064266868342766E-3   -5.112247521078402E1
 7.271590000000000E9     2.070801979096383E-3   -5.118420268211585E1
 7.271595000000000E9     2.078158719873025E-3   -5.124721465496925E1
 7.271600000000000E9     2.086636650205277E-3   -5.129767373972022E1
 7.271605000000000E9     2.092358732147335E-3   -5.140105035232399E1
 7.271610000000000E9     2.101508255255816E-3   -5.144666259907353E1
 7.271615000000000E9     2.100969367940489E-3   -5.166843928192499E1
 7.271620000000000E9     2.109760173148492E-3   -5.169562963611892E1
 7.271625000000000E9     2.122030982942614E-3   -5.158269817598329E1
 7.271630000000000E9     2.127449865104637E-3   -5.174685340918978E1
 7.271635000000000E9     2.139308729998995E-3   -5.181708223254733E1
 7.271640000000000E9     2.147043936356093E-3   -5.189617905470036E1
 7.271645000000000E9     2.151919992996893E-3   -5.195364002231122E1
 7.271650000000000E9     2.164866777013217E-3   -5.206923456545829E1
 7.271655000000000E9     2.169269851514076E-3   -5.225892912021696E1
 7.271660000000000E9     2.177542906554052E-3   -5.209703758267015E1
 7.271665000000000E9     2.186575378946403E-3   -5.237831855493484E1
 7.271670000000000E9     2.189974939956237E-3   -5.234440069325320E1
 7.271675000000000E9     2.200388413334465E-3   -5.246191793942367E1
 7.271680000000000E9     2.207615845122157E-3   -5.246570107198995E1
 7.271685000000000E9     2.216373058336010E-3   -5.273826807217090E1
 7.271690000000000E9     2.226537749431653E-3   -5.274081390596707E1
 7.271695000000000E9     2.234825253066702E-3   -5.273555184438653E1
 7.271700000000000E9     2.235948073525091E-3   -5.283497204235148E1
 7.271705000000000E9     2.250885686966032E-3   -5.295218152113382E1
 7.271710000000000E9     2.255538697042966E-3   -5.310796107259640E1
 7.271715000000000E9     2.264804044722458E-3   -5.308215836966102E1
 7.271720000000000E9     2.272253231003610E-3   -5.314645254533779E1
 7.271725000000000E9     2.288255823406475E-3   -5.320989726141104E1
 7.271730000000000E9     2.295128752129289E-3   -5.337142769316775E1
 7.271735000000000E9     2.299740575296978E-3   -5.336611041164380E1
 7.271740000000000E9     2.309696118915784E-3   -5.351421239860443E1
 7.271745000000000E9     2.317881400769592E-3   -5.363742825940810E1
 7.271750000000000E9     2.325864791763616E-3   -5.369734071567326E1
 7.271755000000000E9     2.335407509590960E-3   -5.385717554267092E1
 7.271760000000000E9     2.345382758856172E-3   -5.392465303757960E1
 7.271765000000000E9     2.355739751446457E-3   -5.392171115032902E1
 7.271770000000000E9     2.363884553714106E-3   -5.416827506235703E1
 7.271775000000000E9     2.378732975465027E-3   -5.425521314089547E1
 7.271780000000000E9     2.383061612049629E-3   -5.437138562109777E1
 7.271785000000000E9     2.390939407201611E-3   -5.437163846107873E1
 7.271790000000000E9     2.402650946405745E-3   -5.455268144356742E1
 7.271795000000000E9     2.416010024231650E-3   -5.456370610317271E1
 7.271800000000000E9     2.419893254059868E-3   -5.452599761468342E1
 7.271805000000000E9     2.429410570492994E-3   -5.470915052749539E1
 7.271810000000000E9     2.442767016919369E-3   -5.484438189470784E1
 7.271815000000000E9     2.449071203141936E-3   -5.483586807557921E1
 7.271820000000000E9     2.462090945972572E-3   -5.500824821632401E1
 7.271825000000000E9     2.467458663724356E-3   -5.517974554567954E1
 7.271830000000000E9     2.481442937371384E-3   -5.519140250550134E1
 7.271835000000000E9     2.490064996449411E-3   -5.536275197677518E1
 7.271840000000000E9     2.506565444445539E-3   -5.545717745400817E1
 7.271845000000000E9     2.512848144631420E-3   -5.548839985679304E1
 7.271850000000000E9     2.525543524254190E-3   -5.567452986744864E1
 7.271855000000000E9     2.535217775534265E-3   -5.574661519346859E1
 7.271860000000000E9     2.544377787826311E-3   -5.579577709874220E1
 7.271865000000000E9     2.554964769404581E-3   -5.589112989436641E1
 7.271870000000000E9     2.568782819644651E-3   -5.603723611869421E1
 7.271875000000000E9     2.579370742233904E-3   -5.622225921634591E1
 7.271880000000000E9     2.588043205353794E-3   -5.634181974959640E1
 7.271885000000000E9     2.594190288222533E-3   -5.632476959825881E1
 7.271890000000000E9     2.609505985228423E-3   -5.651492046027182E1
 7.271895000000000E9     2.622010194478290E-3   -5.658981375870455E1
 7.271900000000000E9     2.631409243998947E-3   -5.676133816340197E1
 7.271905000000000E9     2.648492400618401E-3   -5.674201934965259E1
 7.271910000000000E9     2.652644337329240E-3   -5.690853500520515E1
 7.271915000000000E9     2.665935625903491E-3   -5.707384926945992E1
 7.271920000000000E9     2.680177090292413E-3   -5.718322524058680E1
 7.271925000000000E9     2.691812080850786E-3   -5.730692758321148E1
 7.271930000000000E9     2.704738065399934E-3   -5.731272187912219E1
 7.271935000000000E9     2.714947268651713E-3   -5.739348387728568E1
 7.271940000000000E9     2.728277593772373E-3   -5.769681506608036E1
 7.271945000000000E9     2.734066073570827E-3   -5.772759324840241E1
 7.271950000000000E9     2.751710488392820E-3   -5.788673263371871E1
 7.271955000000000E9     2.762009505708166E-3   -5.801473250080306E1
 7.271960000000000E9     2.775135866275940E-3   -5.806531161181751E1
 7.271965000000000E9     2.788782507037054E-3   -5.821620641103608E1
 7.271970000000000E9     2.804352101309107E-3   -5.835596836169415E1
 7.271975000000000E9     2.810299889994915E-3   -5.858777340571478E1
 7.271980000000000E9     2.828176622837734E-3   -5.862478453635171E1
 7.271985000000000E9     2.838404961932154E-3   -5.875916458173550E1
 7.271990000000000E9     2.856210284135585E-3   -5.887771869715071E1
 7.271995000000000E9     2.864365833119188E-3   -5.905485803884957E1
 7.272000000000000E9     2.878391981742855E-3   -5.909233693331932E1
 7.272005000000000E9     2.890978225421599E-3   -5.934446086986524E1
 7.272010000000000E9     2.904647699699365E-3   -5.944424561136697E1
 7.272015000000000E9     2.924035474100738E-3   -5.954608715430074E1
 7.272020000000000E9     2.934554425317580E-3   -5.968772191282714E1
 7.272025000000000E9     2.947639976378866E-3   -5.977630529747249E1
 7.272030000000000E9     2.955106950057474E-3   -5.982819470009927E1
 7.272035000000000E9     2.972043113356276E-3   -5.999126190893562E1
 7.272040000000000E9     2.993805780215819E-3   -6.030040811482856E1
 7.272045000000000E9     3.003730632038121E-3   -6.043655538959512E1
 7.272050000000000E9     3.017359986401588E-3   -6.057134713597551E1
 7.272055000000000E9     3.033031498972227E-3   -6.071065580066810E1
 7.272060000000000E9     3.047286819838083E-3   -6.084728506651710E1
 7.272065000000000E9     3.064866735831089E-3   -6.105613894803767E1
 7.272070000000000E9     3.078889893830976E-3   -6.114540670179106E1
 7.272075000000000E9     3.094566208708003E-3   -6.128672943589778E1
 7.272080000000000E9     3.104568882516070E-3   -6.151832515414139E1
 7.272085000000000E9     3.119704373665504E-3   -6.158239226887363E1
 7.272090000000000E9     3.132074332005873E-3   -6.180194004223719E1
 7.272095000000000E9     3.152098960258382E-3   -6.203503676414294E1
 7.272100000000000E9     3.170346785934033E-3   -6.212234044352014E1
 7.272105000000000E9     3.187402387079307E-3   -6.232064774689569E1
 7.272110000000000E9     3.199348690578925E-3   -6.242603150168118E1
 7.272115000000000E9     3.218917393695196E-3   -6.260555661562315E1
 7.272120000000000E9     3.231489358707021E-3   -6.277695498541397E1
 7.272125000000000E9     3.249716358590422E-3   -6.293847251328137E1
 7.272130000000000E9     3.266560699575209E-3   -6.317411004846278E1
 7.272135000000000E9     3.285971006756458E-3   -6.327896087534175E1
 7.272140000000000E9     3.301367961503745E-3   -6.341938024665287E1
 7.272145000000000E9     3.315431703322690E-3   -6.359471750149660E1
 7.272150000000000E9     3.334601291389401E-3   -6.389558125108497E1
 7.272155000000000E9     3.350065234620238E-3   -6.399739086537015E1
 7.272160000000000E9     3.370401830190176E-3   -6.417845467073040E1
 7.272165000000000E9     3.387213186962364E-3   -6.434944496715902E1
 7.272170000000000E9     3.388329593995335E-3   -6.453593482304591E1
 7.272175000000000E9     3.425541420869614E-3   -6.446822946679538E1
 7.272180000000000E9     3.421759639961961E-3   -6.515280457482551E1
 7.272185000000000E9     3.434305032553669E-3   -6.517898502068651E1
 7.272190000000000E9     3.454446458172521E-3   -6.508277114918694E1
 7.272195000000000E9     3.495518841763866E-3   -6.547558778689596E1
 7.272200000000000E9     3.491569173696554E-3   -6.570548196962396E1
 7.272205000000000E9     3.522694769453615E-3   -6.564970547871664E1
 7.272210000000000E9     3.526498577239567E-3   -6.645134713239386E1
 7.272215000000000E9     3.555079481030018E-3   -6.610992444449629E1
 7.272220000000000E9     3.571822949990552E-3   -6.661253537554849E1
 7.272225000000000E9     3.606034604647660E-3   -6.678765100085185E1
 7.272230000000000E9     3.603260436504650E-3   -6.697080262228160E1
 7.272235000000000E9     3.623482384792469E-3   -6.719132419984030E1
 7.272240000000000E9     3.656731984629687E-3   -6.732183712513502E1
 7.272245000000000E9     3.672698036978461E-3   -6.734425779367326E1
 7.272250000000000E9     3.692407403747079E-3   -6.802965862532982E1
 7.272255000000000E9     3.717356307665905E-3   -6.778746665685755E1
 7.272260000000000E9     3.752875449298542E-3   -6.841719388507778E1
 7.272265000000000E9     3.748269497149607E-3   -6.839564155970869E1
 7.272270000000000E9     3.761534352852245E-3   -6.863931080570535E1
 7.272275000000000E9     3.781313646483026E-3   -6.902123525516431E1
 7.272280000000000E9     3.823992728595424E-3   -6.912566653130790E1
 7.272285000000000E9     3.832934527208511E-3   -6.929876586711343E1
 7.272290000000000E9     3.855059107810144E-3   -6.939073176479731E1
 7.272295000000000E9     3.886132722688590E-3   -6.985317435148157E1
 7.272300000000000E9     3.879621552487524E-3   -7.031232343047975E1
 7.272305000000000E9     3.919368829563069E-3   -7.053876322516824E1
 7.272310000000000E9     3.937739196529496E-3   -7.053665969686307E1
 7.272315000000000E9     3.961764440378639E-3   -7.110604679448906E1
 7.272320000000000E9     3.985755328407783E-3   -7.106407223887629E1
 7.272325000000000E9     4.021105649039055E-3   -7.147012616570497E1
 7.272330000000000E9     4.041304030710754E-3   -7.169128989000103E1
 7.272335000000000E9     4.057026412511175E-3   -7.210464283762681E1
 7.272340000000000E9     4.082234259609291E-3   -7.232238841888488E1
 7.272345000000000E9     4.098236057993560E-3   -7.255446699106635E1
 7.272350000000000E9     4.121266579412807E-3   -7.278049705985546E1
 7.272355000000000E9     4.153710648776959E-3   -7.321083178046730E1
 7.272360000000000E9     4.188827807536564E-3   -7.364725450560070E1
 7.272365000000000E9     4.182663757049795E-3   -7.377436730743176E1
 7.272370000000000E9     4.204504515557869E-3   -7.396980752674348E1
 7.272375000000000E9     4.247304267776668E-3   -7.416218927129422E1
 7.272380000000000E9     4.270575398010859E-3   -7.466292730568732E1
 7.272385000000000E9     4.287399286815757E-3   -7.482412944159742E1
 7.272390000000000E9     4.326114049167767E-3   -7.536388627297676E1
 7.272395000000000E9     4.351806254698589E-3   -7.544672115667299E1
 7.272400000000000E9     4.369858035486399E-3   -7.570030845330885E1
 7.272405000000000E9     4.371973070399693E-3   -7.620635488248723E1
 7.272410000000000E9     4.435387487473070E-3   -7.634900036006231E1
 7.272415000000000E9     4.457044391481611E-3   -7.696858977232823E1
 7.272420000000000E9     4.466140198889686E-3   -7.719066755873139E1
 7.272425000000000E9     4.514786787794754E-3   -7.725852901108173E1
 7.272430000000000E9     4.517251703849528E-3   -7.787366240569304E1
 7.272435000000000E9     4.532792900032015E-3   -7.814846621131645E1
 7.272440000000000E9     4.573912082682353E-3   -7.853840502724158E1
 7.272445000000000E9     4.608157396268222E-3   -7.859761986279726E1
 7.272450000000000E9     4.617168668050275E-3   -7.948406792605066E1
 7.272455000000000E9     4.672665792152590E-3   -7.972249057628760E1
 7.272460000000000E9     4.682610140590184E-3   -7.973583883622497E1
 7.272465000000000E9     4.722583205485374E-3   -8.014000062461189E1
 7.272470000000000E9     4.734568916995260E-3   -8.058039015318434E1
 7.272475000000000E9     4.785403919338413E-3   -8.088217760285136E1
 7.272480000000000E9     4.799762928595371E-3   -8.135722971992556E1
 7.272485000000000E9     4.819533011258675E-3   -8.185398543748632E1
 7.272490000000000E9     4.843767767297093E-3   -8.214763404890361E1
 7.272495000000000E9     4.887656119863798E-3   -8.241220362254283E1
 7.272500000000000E9     4.922454836807166E-3   -8.280741323511258E1
 7.272505000000000E9     4.938754799131100E-3   -8.333327454573575E1
 7.272510000000000E9     4.968605426091785E-3   -8.371134136783978E1
 7.272515000000000E9     5.004277524259114E-3   -8.432018614450725E1
 7.272520000000000E9     5.017257413857967E-3   -8.444595964063281E1
 7.272525000000000E9     5.063155751576620E-3   -8.474004608840040E1
 7.272530000000000E9     5.084814960779510E-3   -8.536045708947894E1
 7.272535000000000E9     5.086407284194985E-3   -8.565600305474769E1
 7.272540000000000E9     5.138520995352809E-3   -8.621343098770174E1
 7.272545000000000E9     5.163304283105681E-3   -8.655126062123516E1
 7.272550000000000E9     5.193712043037210E-3   -8.695946893606320E1
 7.272555000000000E9     5.230065543823920E-3   -8.732449069005190E1
 7.272560000000000E9     5.254868554574432E-3   -8.798884481667019E1
 7.272565000000000E9     5.281976131840049E-3   -8.857358609956387E1
 7.272570000000000E9     5.318826999435545E-3   -8.876557735238114E1
 7.272575000000000E9     5.327710253733780E-3   -8.940274948611284E1
 7.272580000000000E9     5.363225239842576E-3   -8.981029829473015E1
 7.272585000000000E9     5.382977221889633E-3   -9.038813108681224E1
 7.272590000000000E9     5.396328543897162E-3   -9.070966371725905E1
 7.272595000000000E9     5.459827904821133E-3   -9.122681775144061E1
 7.272600000000000E9     5.485349266599051E-3   -9.171533237638113E1
 7.272605000000000E9     5.506343225722162E-3   -9.221143902754979E1
 7.272610000000000E9     5.499379233355748E-3   -9.275978303121605E1
 7.272615000000000E9     5.562790227583457E-3   -9.344287742195789E1
 7.272620000000000E9     5.582188831514902E-3   -9.386048438423060E1
 7.272625000000000E9     5.608233724166837E-3   -9.421530532584640E1
 7.272630000000000E9     5.630997634382050E-3   -9.481282739209233E1
 7.272635000000000E9     5.675291908344950E-3   -9.538727777555711E1
 7.272640000000000E9     5.693098379333838E-3   -9.590771492147526E1
 7.272645000000000E9     5.715351341627722E-3   -9.636297303361694E1
 7.272650000000000E9     5.747406649721376E-3   -9.689323279077512E1
 7.272655000000000E9     5.774333868408190E-3   -9.740810390200895E1
 7.272660000000000E9     5.805192947056545E-3   -9.806137933596189E1
 7.272665000000000E9     5.830277958638209E-3   -9.853288135734719E1
 7.272670000000000E9     5.843323586045711E-3   -9.919365761769097E1
 7.272675000000000E9     5.869358889219909E-3   -9.968507733152759E1
 7.272680000000000E9     5.906373471750427E-3   -1.003127236312309E2
 7.272685000000000E9     5.929771613040637E-3   -1.009370731132794E2
 7.272690000000000E9     5.945875641650733E-3   -1.013719717361268E2
 7.272695000000000E9     5.950059880526515E-3   -1.020346096805142E2
 7.272700000000000E9     5.995610645224661E-3   -1.027034493620269E2
 7.272705000000000E9     6.012592194314348E-3   -1.032732165775726E2
 7.272710000000000E9     6.009563335711126E-3   -1.037711049445714E2
 7.272715000000000E9     6.041910527661758E-3   -1.044537334899541E2
 7.272720000000000E9     6.065192284500551E-3   -1.050556983132948E2
 7.272725000000000E9     6.114755393370950E-3   -1.055692715360984E2
 7.272730000000000E9     6.126049907007291E-3   -1.063448691841199E2
 7.272735000000000E9     6.126822321127482E-3   -1.068454164220942E2
 7.272740000000000E9     6.154476213602014E-3   -1.076243951291254E2
 7.272745000000000E9     6.177776188455143E-3   -1.081569675145866E2
 7.272750000000000E9     6.168885600189491E-3   -1.088444372958132E2
 7.272755000000000E9     6.210097538200704E-3   -1.094730687762766E2
 7.272760000000000E9     6.204997660150261E-3   -1.098569466637683E2
 7.272765000000000E9     6.220293845640335E-3   -1.105608872671343E2
 7.272770000000000E9     6.257724950949516E-3   -1.112107760768788E2
 7.272775000000000E9     6.265944570266185E-3   -1.119467584517383E2
 7.272780000000000E9     6.270983274583133E-3   -1.128017674466038E2
 7.272785000000000E9     6.278616532611011E-3   -1.133972904857260E2
 7.272790000000000E9     6.286661113849563E-3   -1.138335465663688E2
 7.272795000000000E9     6.308137123406970E-3   -1.146346294854166E2
 7.272800000000000E9     6.316365233342488E-3   -1.154264098497745E2
 7.272805000000000E9     6.318910624072601E-3   -1.156728752544138E2
 7.272810000000000E9     6.341624659035368E-3   -1.164143018108999E2
 7.272815000000000E9     6.340450001643610E-3   -1.172302298509030E2
 7.272820000000000E9     6.347448456645234E-3   -1.177421381302280E2
 7.272825000000000E9     6.347254084551416E-3   -1.182536951757880E2
 7.272830000000000E9     6.361150397784757E-3   -1.192494959285346E2
 7.272835000000000E9     6.351283517872217E-3   -1.199042390372023E2
 7.272840000000000E9     6.378324439657189E-3   -1.205226116122423E2
 7.272845000000000E9     6.365193284364527E-3   -1.212411652096379E2
 7.272850000000000E9     6.375306388470022E-3   -1.219509613271794E2
 7.272855000000000E9     6.353862626828113E-3   -1.226105660855171E2
 7.272860000000000E9     6.356741189180373E-3   -1.232199886254987E2
 7.272865000000000E9     6.361148460557535E-3   -1.238350542351913E2
 7.272870000000000E9     6.376473860661134E-3   -1.245833101368795E2
 7.272875000000000E9     6.378760607787619E-3   -1.252150604029505E2
 7.272880000000000E9     6.371451961651154E-3   -1.258273570579074E2
 7.272885000000000E9     6.349424829161101E-3   -1.266623020218464E2
 7.272890000000000E9     6.343863984141004E-3   -1.271051657862461E2
 7.272895000000000E9     6.330644311047305E-3   -1.278412613329713E2
 7.272900000000000E9     6.335897416520153E-3   -1.285071112616087E2
 7.272905000000000E9     6.316130857798896E-3   -1.292486639201220E2
 7.272910000000000E9     6.326245958450846E-3   -1.298869600178195E2
 7.272915000000000E9     6.324182340722242E-3   -1.304925824582035E2
 7.272920000000000E9     6.295483156733114E-3   -1.311545319307407E2
 7.272925000000000E9     6.266124203954212E-3   -1.319301079958611E2
 7.272930000000000E9     6.261854830645402E-3   -1.324033002702564E2
 7.272935000000000E9     6.274409843344609E-3   -1.331093389554264E2
 7.272940000000000E9     6.230587373695193E-3   -1.336693963079109E2
 7.272945000000000E9     6.252549671718709E-3   -1.343456445249286E2
 7.272950000000000E9     6.226811434668484E-3   -1.349996161905534E2
 7.272955000000000E9     6.210762419944755E-3   -1.357167255802283E2
 7.272960000000000E9     6.206765581843676E-3   -1.362963550773775E2
 7.272965000000000E9     6.166678536268664E-3   -1.369137407977755E2
 7.272970000000000E9     6.147010631046662E-3   -1.375620348272483E2
 7.272975000000000E9     6.131906570108815E-3   -1.383326435051369E2
 7.272980000000000E9     6.117636380207859E-3   -1.387532156521571E2
 7.272985000000000E9     6.094944786571387E-3   -1.395596257001581E2
 7.272990000000000E9     6.084413651426763E-3   -1.401767992455687E2
 7.272995000000000E9     6.069217857555818E-3   -1.405989983149703E2
 7.273000000000000E9     6.057837267500654E-3   -1.412028793359497E2
 7.273005000000000E9     6.028560222884603E-3   -1.418149742977161E2
 7.273010000000000E9     5.981759153353580E-3   -1.425552073053418E2
 7.273015000000000E9     5.963216638865185E-3   -1.429642005213117E2
 7.273020000000000E9     5.909597934692550E-3   -1.437399150848208E2
 7.273025000000000E9     5.923628224703530E-3   -1.442156106907701E2
 7.273030000000000E9     5.889628190504306E-3   -1.447003289470829E2
 7.273035000000000E9     5.869199579782626E-3   -1.452207142894809E2
 7.273040000000000E9     5.839963326846668E-3   -1.460166706322338E2
 7.273045000000000E9     5.815588055196697E-3   -1.463871456509709E2
 7.273050000000000E9     5.802245055205543E-3   -1.471589836118813E2
 7.273055000000000E9     5.763064955774918E-3   -1.477837075963636E2
 7.273060000000000E9     5.739264545834842E-3   -1.481194850982136E2
 7.273065000000000E9     5.720008734841987E-3   -1.486896070231214E2
 7.273070000000000E9     5.707053636561761E-3   -1.491526891655018E2
 7.273075000000000E9     5.665685078680293E-3   -1.497662582384085E2
 7.273080000000000E9     5.643923827169590E-3   -1.502646395140370E2
 7.273085000000000E9     5.613997267917118E-3   -1.508417730732379E2
 7.273090000000000E9     5.585005837377063E-3   -1.514697421624076E2
 7.273095000000000E9     5.562326429557278E-3   -1.517368517454529E2
 7.273100000000000E9     5.518698242485934E-3   -1.523065743081151E2
 7.273105000000000E9     5.499646063920029E-3   -1.527812723745819E2
 7.273110000000000E9     5.487884846988110E-3   -1.534235251916437E2
 7.273115000000000E9     5.425458990616962E-3   -1.538881704917669E2
 7.273120000000000E9     5.413984165009050E-3   -1.543486506277900E2
 7.273125000000000E9     5.382468060044758E-3   -1.547875692338039E2
 7.273130000000000E9     5.360365373548713E-3   -1.552694267633010E2
 7.273135000000000E9     5.335967280010403E-3   -1.558292595160003E2
 7.273140000000000E9     5.296007719615560E-3   -1.563222661945559E2
 7.273145000000000E9     5.275012620329835E-3   -1.566520626075232E2
 7.273150000000000E9     5.242192831673105E-3   -1.571728340307318E2
 7.273155000000000E9     5.211137593981935E-3   -1.575078581510402E2
 7.273160000000000E9     5.182827947604041E-3   -1.578991508594541E2
 7.273165000000000E9     5.138776773758860E-3   -1.585142836108257E2
 7.273170000000000E9     5.141894029854370E-3   -1.589662766349835E2
 7.273175000000000E9     5.097922267253825E-3   -1.593905424339907E2
 7.273180000000000E9     5.067166568814015E-3   -1.600276554265548E2
 7.273185000000000E9     5.030838296001676E-3   -1.603763619435234E2
 7.273190000000000E9     5.002202841094668E-3   -1.607241581405430E2
 7.273195000000000E9     4.984611164967972E-3   -1.611808644499802E2
 7.273200000000000E9     4.959471025916122E-3   -1.614789256692094E2
 7.273205000000000E9     4.931953073246141E-3   -1.620795111557186E2
 7.273210000000000E9     4.898648352903706E-3   -1.623765508260528E2
 7.273215000000000E9     4.869689664875327E-3   -1.626775961061685E2
 7.273220000000000E9     4.839904090005922E-3   -1.630597307211735E2
 7.273225000000000E9     4.799877643526042E-3   -1.636685043856532E2
 7.273230000000000E9     4.789794410442558E-3   -1.637203903823354E2
 7.273235000000000E9     4.769458642157965E-3   -1.642504088551500E2
 7.273240000000000E9     4.729064804537589E-3   -1.646567374014406E2
 7.273245000000000E9     4.718283201129954E-3   -1.651351680822766E2
 7.273250000000000E9     4.678223069726746E-3   -1.654411956514441E2
 7.273255000000000E9     4.651620879587866E-3   -1.656601206547906E2
 7.273260000000000E9     4.643927357267948E-3   -1.661815206098390E2
 7.273265000000000E9     4.616426895564605E-3   -1.664098522134857E2
 7.273270000000000E9     4.566514248879177E-3   -1.669713613769572E2
 7.273275000000000E9     4.534708259628785E-3   -1.672538236769385E2
 7.273280000000000E9     4.506605395141019E-3   -1.673200856422605E2
 7.273285000000000E9     4.494105367047396E-3   -1.678656756856092E2
 7.273290000000000E9     4.466313220815189E-3   -1.681504992097789E2
 7.273295000000000E9     4.431310453360119E-3   -1.682773772667256E2
 7.273300000000000E9     4.418764423505369E-3   -1.688978918467459E2
 7.273305000000000E9     4.399480492507053E-3   -1.691129463406161E2
 7.273310000000000E9     4.365077351331743E-3   -1.693762005155558E2
 7.273315000000000E9     4.323963614641146E-3   -1.696888621920245E2
 7.273320000000000E9     4.315763564576298E-3   -1.699904037118535E2
 7.273325000000000E9     4.276438306836368E-3   -1.701540518126075E2
 7.273330000000000E9     4.264042836054137E-3   -1.706489929979021E2
 7.273335000000000E9     4.229397852224146E-3   -1.710796702899295E2
 7.273340000000000E9     4.201195676049010E-3   -1.711033650169030E2
 7.273345000000000E9     4.180531926191100E-3   -1.715834726659397E2
 7.273350000000000E9     4.147860017745059E-3   -1.718010035309710E2
 7.273355000000000E9     4.129061012806514E-3   -1.720075545626723E2
 7.273360000000000E9     4.116821717917382E-3   -1.722619943022387E2
 7.273365000000000E9     4.085709932921836E-3   -1.725961604326709E2
 7.273370000000000E9     4.060282802916395E-3   -1.728252053453342E2
 7.273375000000000E9     4.046974112662877E-3   -1.733685485959639E2
 7.273380000000000E9     4.014020157160485E-3   -1.735542982246328E2
 7.273385000000000E9     3.998368968542171E-3   -1.737266238323979E2
 7.273390000000000E9     3.960085919242653E-3   -1.743154477673867E2
 7.273395000000000E9     3.942154321366853E-3   -1.742211162139690E2
 7.273400000000000E9     3.924912788262435E-3   -1.746668138275515E2
 7.273405000000000E9     3.898770838648929E-3   -1.746843082511592E2
 7.273410000000000E9     3.865868974329691E-3   -1.749096629694663E2
 7.273415000000000E9     3.856958490188217E-3   -1.752720216936366E2
 7.273420000000000E9     3.845084351729167E-3   -1.755489153774776E2
 7.273425000000000E9     3.816722076781445E-3   -1.758818333305400E2
 7.273430000000000E9     3.789997447434797E-3   -1.760512579840039E2
 7.273435000000000E9     3.779426380694762E-3   -1.762678141461301E2
 7.273440000000000E9     3.735912757795878E-3   -1.767941978662814E2
 7.273445000000000E9     3.727845830049850E-3   -1.767387566482605E2
 7.273450000000000E9     3.716991772382228E-3   -1.769331382501358E2
 7.273455000000000E9     3.685469344703204E-3   -1.771520090881476E2
 7.273460000000000E9     3.649409857986925E-3   -1.776097973487687E2
 7.273465000000000E9     3.649220078802005E-3   -1.770893448207419E2
 7.273470000000000E9     3.624501320231836E-3   -1.780748084596952E2
 7.273475000000000E9     3.594763987010544E-3   -1.781257035896577E2
 7.273480000000000E9     3.595235798458365E-3   -1.785524498070608E2
 7.273485000000000E9     3.557380321836992E-3   -1.783124207480874E2
 7.273490000000000E9     3.563471760484630E-3   -1.786865827543693E2
 7.273495000000000E9     3.538205391292841E-3   -1.789844708294157E2
 7.273500000000000E9     3.496523142884059E-3   -1.793965445173550E2
 7.273505000000000E9     3.493381049720202E-3   -1.792596734721722E2
 7.273510000000000E9     3.467806594473641E-3   -1.795980290773035E2
 7.273515000000000E9     3.460398178384063E-3    1.799872590504139E2
 7.273520000000000E9     3.436365749370751E-3   -1.798521863333832E2
 7.273525000000000E9     3.426002543847455E-3    1.795682356950897E2
 7.273530000000000E9     3.401518279488117E-3    1.798399242556145E2
 7.273535000000000E9     3.403022162734490E-3    1.793635728285443E2
 7.273540000000000E9     3.352459104575197E-3    1.792871961588719E2
 7.273545000000000E9     3.331768131903411E-3    1.792374496601136E2
 7.273550000000000E9     3.321531885757627E-3    1.787150666172291E2
 7.273555000000000E9     3.319012134991658E-3    1.786025759884795E2
 7.273560000000000E9     3.298899458257721E-3    1.788650455806214E2
 7.273565000000000E9     3.273061082324253E-3    1.781813328206147E2
 7.273570000000000E9     3.259464960695551E-3    1.782034704723708E2
 7.273575000000000E9     3.260340187734704E-3    1.780853891603284E2
 7.273580000000000E9     3.233389133347993E-3    1.777030964825138E2
 7.273585000000000E9     3.211177895730132E-3    1.778282567836745E2
 7.273590000000000E9     3.195079781635173E-3    1.776119180165880E2
 7.273595000000000E9     3.190488021259952E-3    1.771153601051346E2
 7.273600000000000E9     3.178089495062538E-3    1.775114452562401E2
 7.273605000000000E9     3.159466316406445E-3    1.767446255700912E2
 7.273610000000000E9     3.127640984723523E-3    1.766772418965973E2
 7.273615000000000E9     3.107303318247227E-3    1.766539295935595E2
 7.273620000000000E9     3.088014838021297E-3    1.763154822147612E2
 7.273625000000000E9     3.091444274478942E-3    1.764317989919936E2
 7.273630000000000E9     3.064610439195121E-3    1.759026508603013E2
 7.273635000000000E9     3.050239256246135E-3    1.759777862885135E2
 7.273640000000000E9     3.032342918617568E-3    1.759820452804078E2
 7.273645000000000E9     3.016218844287269E-3    1.756180241967072E2
 7.273650000000000E9     3.009261310747100E-3    1.754317799760559E2
 7.273655000000000E9     3.009970504369878E-3    1.755620338726589E2
 7.273660000000000E9     2.962165542411918E-3    1.751602929826444E2
 7.273665000000000E9     2.963112091755298E-3    1.753052339589984E2
 7.273670000000000E9     2.962402436738054E-3    1.753784501906164E2
 7.273675000000000E9     2.930895733508080E-3    1.743622074385772E2
 7.273680000000000E9     2.915532069073646E-3    1.745118072195230E2
 7.273685000000000E9     2.920424078226167E-3    1.745439661066471E2
 7.273690000000000E9     2.883766315937320E-3    1.743322306453346E2
 7.273695000000000E9     2.879499967802725E-3    1.744228126363912E2
 7.273700000000000E9     2.873442820091155E-3    1.742283977610751E2
 7.273705000000000E9     2.845233443295811E-3    1.743618702257844E2
 7.273710000000000E9     2.839228090095951E-3    1.736714520837479E2
 7.273715000000000E9     2.826171619218265E-3    1.737843828321548E2
 7.273720000000000E9     2.802895756820794E-3    1.733301218642873E2
 7.273725000000000E9     2.784811217943364E-3    1.735684087899816E2
 7.273730000000000E9     2.774877524430888E-3    1.731969148075123E2
 7.273735000000000E9     2.774052535340977E-3    1.730559699314755E2
 7.273740000000000E9     2.763837919314155E-3    1.732645770007086E2
 7.273745000000000E9     2.744928881336400E-3    1.729569206632943E2
 7.273750000000000E9     2.725011495980156E-3    1.731414176172712E2
 7.273755000000000E9     2.732853428773760E-3    1.724884938434681E2
 7.273760000000000E9     2.703205087509256E-3    1.724837023160868E2
 7.273765000000000E9     2.712437299601537E-3    1.723563435633806E2
 7.273770000000000E9     2.688007777106486E-3    1.723686732970629E2
 7.273775000000000E9     2.673454010291094E-3    1.720791901112895E2
 7.273780000000000E9     2.659711174839834E-3    1.718784383121822E2
 7.273785000000000E9     2.643703779353074E-3    1.717818886303963E2
 7.273790000000000E9     2.646931004280074E-3    1.717322694820087E2
 7.273795000000000E9     2.614230836231377E-3    1.715833363764735E2
 7.273800000000000E9     2.603496502084922E-3    1.719652895960216E2
 7.273805000000000E9     2.611860316743502E-3    1.713440264747766E2
 7.273810000000000E9     2.597078537576842E-3    1.712093498699841E2
 7.273815000000000E9     2.579544566342317E-3    1.712037315944289E2
 7.273820000000000E9     2.578253717060798E-3    1.709837575430247E2
 7.273825000000000E9     2.571626389235629E-3    1.710529298815929E2
 7.273830000000000E9     2.549872674703816E-3    1.708019476786129E2
 7.273835000000000E9     2.543404555116784E-3    1.707299256502212E2
 7.273840000000000E9     2.533422108805702E-3    1.706656911252818E2
 7.273845000000000E9     2.521673631909684E-3    1.706090630999594E2
 7.273850000000000E9     2.505974817648069E-3    1.702692927680166E2
 7.273855000000000E9     2.505321042099913E-3    1.703346592308280E2
 7.273860000000000E9     2.492121045990095E-3    1.703441032567983E2
 7.273865000000000E9     2.480575688577336E-3    1.701368738360990E2
 7.273870000000000E9     2.470126671833493E-3    1.699723037283291E2
 7.273875000000000E9     2.459119532087057E-3    1.699210142014026E2
 7.273880000000000E9     2.446024809056022E-3    1.698246760736472E2
 7.273885000000000E9     2.440152789018984E-3    1.696411441322741E2
 7.273890000000000E9     2.429258184079189E-3    1.695531535154689E2
 7.273895000000000E9     2.416813319904950E-3    1.695905351943282E2
 7.273900000000000E9     2.405136192558889E-3    1.694153356391673E2
 7.273905000000000E9     2.395732373929667E-3    1.692579368640025E2
 7.273910000000000E9     2.380918530275107E-3    1.692007911786409E2
 7.273915000000000E9     2.379907631753172E-3    1.691220803534289E2
 7.273920000000000E9     2.368335725472126E-3    1.690012164922482E2
 7.273925000000000E9     2.357921518712090E-3    1.689618879175796E2
 7.273930000000000E9     2.347992057368880E-3    1.688260973339146E2
 7.273935000000000E9     2.337290433318873E-3    1.688685584799184E2
 7.273940000000000E9     2.330756371024725E-3    1.686838578400264E2
 7.273945000000000E9     2.322657877067974E-3    1.684766708776462E2
 7.273950000000000E9     2.311426588200317E-3    1.685105193032990E2
 7.273955000000000E9     2.304871989692647E-3    1.684196642290748E2
 7.273960000000000E9     2.291515933215677E-3    1.683902682879978E2
 7.273965000000000E9     2.284733521966097E-3    1.682022774920824E2
 7.273970000000000E9     2.276786407183158E-3    1.680790283129133E2
 7.273975000000000E9     2.261182352202205E-3    1.681059423913780E2
 7.273980000000000E9     2.252762572633923E-3    1.678784723401933E2
 7.273985000000000E9     2.248844365574639E-3    1.679279076854795E2
 7.273990000000000E9     2.237856220992869E-3    1.678368649999630E2
 7.273995000000000E9     2.231424181560518E-3    1.677405933787572E2
 7.274000000000000E9     2.222117489052991E-3    1.676078603141720E2
 7.274005000000000E9     2.214521253151618E-3    1.675614340883537E2
 7.274010000000000E9     2.203309528382894E-3    1.675475098960325E2
 7.274015000000000E9     2.200319315553108E-3    1.674167290717162E2
 7.274020000000000E9     2.186811969168217E-3    1.672850502337733E2
 7.274025000000000E9     2.182779986060243E-3    1.673473328824832E2
 7.274030000000000E9     2.167857118623249E-3    1.671600378293298E2
 7.274035000000000E9     2.161680172382028E-3    1.671325568131661E2
 7.274040000000000E9     2.155459644136196E-3    1.671045146498527E2
 7.274045000000000E9     2.148983380999748E-3    1.669013015233464E2
 7.274050000000000E9     2.144298471415099E-3    1.669309528887725E2
 7.274055000000000E9     2.130353345979697E-3    1.666443019171685E2
 7.274060000000000E9     2.120111790063180E-3    1.666967126469660E2
 7.274065000000000E9     2.111259723370206E-3    1.666474665090788E2
 7.274070000000000E9     2.107949501628372E-3    1.664685088713881E2
 7.274075000000000E9     2.098592121145924E-3    1.664311200936232E2
 7.274080000000000E9     2.091075422994909E-3    1.664243033076777E2
 7.274085000000000E9     2.083509008849804E-3    1.662809720238625E2
 7.274090000000000E9     2.075143810935906E-3    1.662906912490609E2
 7.274095000000000E9     2.071418675900590E-3    1.662412026252483E2
 7.274100000000000E9     2.064224571192228E-3    1.660936886773702E2
 7.274105000000000E9     2.059691478390167E-3    1.660157883393993E2
 7.274110000000000E9     2.044272735605929E-3    1.659899098554980E2
 7.274115000000000E9     2.039368638734947E-3    1.659597363372537E2
 7.274120000000000E9     2.029909548448048E-3    1.658234276473837E2
 7.274125000000000E9     2.027706884020583E-3    1.658594052112166E2
 7.274130000000000E9     2.019413656227033E-3    1.656081873042082E2
 7.274135000000000E9     2.009126636774168E-3    1.656047955272711E2
 7.274140000000000E9     2.003403267721449E-3    1.654908497311023E2
 7.274145000000000E9     1.994426964971094E-3    1.655547944272223E2
 7.274150000000000E9     1.989969967237618E-3    1.653398734983097E2
 7.274155000000000E9     1.979778591518827E-3    1.653030250431764E2
 7.274160000000000E9     1.973969404270414E-3    1.654111485582715E2
 7.274165000000000E9     1.970117690932673E-3    1.651107869576072E2
 7.274170000000000E9     1.965713309362291E-3    1.652220370056833E2
 7.274175000000000E9     1.960006470239569E-3    1.650876914792435E2
 7.274180000000000E9     1.953544004761539E-3    1.648620055529877E2
 7.274185000000000E9     1.944359769647945E-3    1.649904407003704E2
 7.274190000000000E9     1.933352532228867E-3    1.650933773249427E2
 7.274195000000000E9     1.922887529294449E-3    1.648130024859835E2
 7.274200000000000E9     1.921819261265860E-3    1.648476164979300E2
 7.274205000000000E9     1.914405630503204E-3    1.647329822321387E2
 7.274210000000000E9     1.906769654976858E-3    1.647325365560551E2
 7.274215000000000E9     1.905959434286196E-3    1.645776811993255E2
 7.274220000000000E9     1.895252767414637E-3    1.644560342288145E2
 7.274225000000000E9     1.889622630369587E-3    1.645130580537419E2
 7.274230000000000E9     1.885130407507168E-3    1.643785655292058E2
 7.274235000000000E9     1.874307311281318E-3    1.643777139599953E2
 7.274240000000000E9     1.869100627147571E-3    1.643367684667360E2
 7.274245000000000E9     1.865453221593953E-3    1.642596697989738E2
 7.274250000000000E9     1.863031884609056E-3    1.641133278076560E2
 7.274255000000000E9     1.854562522517508E-3    1.641683643293511E2
 7.274260000000000E9     1.845725784815936E-3    1.642112641872684E2
 7.274265000000000E9     1.835716022957023E-3    1.640338010901228E2
 7.274270000000000E9     1.836283690908046E-3    1.639195476247466E2
 7.274275000000000E9     1.829050075940824E-3    1.640292304957575E2
 7.274280000000000E9     1.822539691123346E-3    1.637810556219503E2
 7.274285000000000E9     1.814203581365815E-3    1.638406063133573E2
 7.274290000000000E9     1.809237975939726E-3    1.636541105322442E2
 7.274295000000000E9     1.806720416831771E-3    1.637176358959853E2
 7.274300000000000E9     1.802661355979746E-3    1.636507454242865E2
 7.274305000000000E9     1.794009099010688E-3    1.636454504140742E2
 7.274310000000000E9     1.786461611348338E-3    1.636038116979633E2
 7.274315000000000E9     1.781623321917639E-3    1.635864510464810E2
 7.274320000000000E9     1.775212389386644E-3    1.634646779887145E2
 7.274325000000000E9     1.772998809392451E-3    1.633842331667519E2
 7.274330000000000E9     1.765371192489492E-3    1.632412675944269E2
 7.274335000000000E9     1.756471060549294E-3    1.634203771669501E2
 7.274340000000000E9     1.753993825314482E-3    1.631636069464368E2
 7.274345000000000E9     1.747221764319169E-3    1.630951931990691E2
 7.274350000000000E9     1.745577428403328E-3    1.630933982964170E2
 7.274355000000000E9     1.732118984279386E-3    1.629681101848819E2
 7.274360000000000E9     1.729425312034465E-3    1.630749580356749E2
 7.274365000000000E9     1.722292025151653E-3    1.631370541925292E2
 7.274370000000000E9     1.717900595611793E-3    1.630062652421024E2
 7.274375000000000E9     1.714127224679038E-3    1.629069059692537E2
 7.274380000000000E9     1.707886229532373E-3    1.628233489249086E2
 7.274385000000000E9     1.702283241093216E-3    1.626814404102213E2
 7.274390000000000E9     1.699516328360051E-3    1.627975751226750E2
 7.274395000000000E9     1.689456531124957E-3    1.626942690484079E2
 7.274400000000000E9     1.691737775285114E-3    1.625871049708899E2
 7.274405000000000E9     1.686401891483897E-3    1.625712373459568E2
 7.274410000000000E9     1.673712435927845E-3    1.625791021757603E2
 7.274415000000000E9     1.670570338938793E-3    1.624162055828904E2
 7.274420000000000E9     1.665279208244189E-3    1.624157596475125E2
 7.274425000000000E9     1.661214229872422E-3    1.623492070178464E2
 7.274430000000000E9     1.660367827587618E-3    1.623178067987284E2
 7.274435000000000E9     1.654668912332911E-3    1.622240168662794E2
 7.274440000000000E9     1.646455030323376E-3    1.622071240552591E2
 7.274445000000000E9     1.638469726104811E-3    1.622167289581370E2
 7.274450000000000E9     1.639135233110956E-3    1.620973107211061E2
 7.274455000000000E9     1.634335568316728E-3    1.620076787627744E2
 7.274460000000000E9     1.631535602567506E-3    1.621314159496366E2
 7.274465000000000E9     1.626231076100476E-3    1.620635128319490E2
 7.274470000000000E9     1.622487423266798E-3    1.619075410187293E2
 7.274475000000000E9     1.614834942475274E-3    1.620433283534214E2
 7.274480000000000E9     1.610758318789472E-3    1.619281804238019E2
 7.274485000000000E9     1.604873774657827E-3    1.619228553468276E2
 7.274490000000000E9     1.594516200911651E-3    1.617978951567436E2
 7.274495000000000E9     1.591325930339019E-3    1.618877128856609E2
 7.274500000000000E9     1.591932907905916E-3    1.616884349673955E2
 7.274505000000000E9     1.588445570203833E-3    1.617012813489829E2
 7.274510000000000E9     1.587879885461198E-3    1.617717347045511E2
 7.274515000000000E9     1.576077862006820E-3    1.617150873151214E2
 7.274520000000000E9     1.571328467619322E-3    1.615978440169500E2
 7.274525000000000E9     1.566641637320289E-3    1.617082055376027E2
 7.274530000000000E9     1.561027450969261E-3    1.613732079723265E2
 7.274535000000000E9     1.562648810678666E-3    1.614857832001349E2
 7.274540000000000E9     1.555619540907699E-3    1.615632646748628E2
 7.274545000000000E9     1.549437749301426E-3    1.611830908105927E2
 7.274550000000000E9     1.546718568610457E-3    1.614472494199071E2
 7.274555000000000E9     1.542768437889919E-3    1.612963121294463E2
 7.274560000000000E9     1.538041618630322E-3    1.613444026501311E2
 7.274565000000000E9     1.532173712042504E-3    1.612493568271725E2
 7.274570000000000E9     1.527816347187243E-3    1.611548575265222E2
 7.274575000000000E9     1.525149339847840E-3    1.610256203801544E2
 7.274580000000000E9     1.523375514818134E-3    1.611241452474626E2
 7.274585000000000E9     1.507629045861476E-3    1.609982124549502E2
 7.274590000000000E9     1.513772151901632E-3    1.609907493290852E2
 7.274595000000000E9     1.510423589544461E-3    1.610319688888071E2
 7.274600000000000E9     1.502951774995201E-3    1.608000905540360E2
 7.274605000000000E9     1.496416770823059E-3    1.608743028156394E2
 7.274610000000000E9     1.495089966375611E-3    1.607500949901594E2
 7.274615000000000E9     1.493660743008616E-3    1.607602206590526E2
 7.274620000000000E9     1.488368383626736E-3    1.608283943551205E2
 7.274625000000000E9     1.485290224909439E-3    1.607585179828528E2
 7.274630000000000E9     1.482759293224250E-3    1.607219406727726E2
 7.274635000000000E9     1.473270604561198E-3    1.606878116583531E2
 7.274640000000000E9     1.469254077164929E-3    1.605178435977103E2
 7.274645000000000E9     1.468604473014750E-3    1.606524706826739E2
 7.274650000000000E9     1.465385440649569E-3    1.604787229477023E2
 7.274655000000000E9     1.459411380412388E-3    1.605291314255071E2
 7.274660000000000E9     1.457570472785742E-3    1.606766469881900E2
 7.274665000000000E9     1.454159134553512E-3    1.604152245545289E2
 7.274670000000000E9     1.447921674374437E-3    1.603130091124951E2
 7.274675000000000E9     1.445935158627438E-3    1.604087961725244E2
 7.274680000000000E9     1.439262710872638E-3    1.603590201452963E2
 7.274685000000000E9     1.440004325410290E-3    1.605081925466142E2
 7.274690000000000E9     1.436036006527693E-3    1.602246247126957E2
 7.274695000000000E9     1.427397297161105E-3    1.603067781179980E2
 7.274700000000000E9     1.430691461241746E-3    1.600725458225248E2
 7.274705000000000E9     1.423049866806920E-3    1.600358217603225E2
 7.274710000000000E9     1.419355807216374E-3    1.602410801762794E2
 7.274715000000000E9     1.417280463411076E-3    1.600917220699359E2
 7.274720000000000E9     1.408149339218568E-3    1.598971068315123E2
 7.274725000000000E9     1.406757035941398E-3    1.598691047152399E2
 7.274730000000000E9     1.403590286084575E-3    1.598997802960321E2
 7.274735000000000E9     1.400729235794159E-3    1.598378561097404E2
 7.274740000000000E9     1.400340515133246E-3    1.599293768638043E2
 7.274745000000000E9     1.393138650808778E-3    1.599018076548041E2
 7.274750000000000E9     1.390829093565987E-3    1.598583734493700E2
 7.274755000000000E9     1.385376260698262E-3    1.597545276197348E2
 7.274760000000000E9     1.381875096671216E-3    1.597457776704398E2
 7.274765000000000E9     1.382050426709230E-3    1.597777589128173E2
 7.274770000000000E9     1.376254009144018E-3    1.598108158596634E2
 7.274775000000000E9     1.373896297016098E-3    1.598868979988131E2
 7.274780000000000E9     1.372206889279259E-3    1.596525774498371E2
 7.274785000000000E9     1.364642755652582E-3    1.598533831844985E2
 7.274790000000000E9     1.361572520816034E-3    1.596148271193881E2
 7.274795000000000E9     1.355711874175645E-3    1.596587451496665E2
 7.274800000000000E9     1.351803834147786E-3    1.595645558629733E2
 7.274805000000000E9     1.351682289912734E-3    1.593300087684824E2
 7.274810000000000E9     1.347876866827444E-3    1.594665704580880E2
 7.274815000000000E9     1.343441071683495E-3    1.593439351495151E2
 7.274820000000000E9     1.343948629153063E-3    1.594052193681275E2
 7.274825000000000E9     1.341705159788739E-3    1.594328507485995E2
 7.274830000000000E9     1.335240701912517E-3    1.592691490955709E2
 7.274835000000000E9     1.333220526537666E-3    1.594186316604487E2
 7.274840000000000E9     1.332823311683902E-3    1.591652234923793E2
 7.274845000000000E9     1.322582801809913E-3    1.592007919302911E2
 7.274850000000000E9     1.326748237047487E-3    1.593981461515921E2
 7.274855000000000E9     1.320008394151929E-3    1.592652088888310E2
 7.274860000000000E9     1.315703808297244E-3    1.590629443480213E2
 7.274865000000000E9     1.317586602723845E-3    1.590099344919561E2
 7.274870000000000E9     1.307802594247317E-3    1.587301534230776E2
 7.274875000000000E9     1.306198207257133E-3    1.589828283849774E2
 7.274880000000000E9     1.304860533189134E-3    1.589792381598774E2
 7.274885000000000E9     1.299669693775928E-3    1.589548785599971E2
 7.274890000000000E9     1.302428681506417E-3    1.589112779720922E2
 7.274895000000000E9     1.294195274761528E-3    1.589236560154513E2
 7.274900000000000E9     1.289338509209413E-3    1.590435034181013E2
 7.274905000000000E9     1.286347656508088E-3    1.587293230421099E2
 7.274910000000000E9     1.287445071280254E-3    1.589725390898620E2
 7.274915000000000E9     1.283317857081854E-3    1.589229889635760E2
 7.274920000000000E9     1.280858587382584E-3    1.588785193790336E2
 7.274925000000000E9     1.276673606168212E-3    1.589902619429618E2
 7.274930000000000E9     1.275219221707096E-3    1.587888066814825E2
 7.274935000000000E9     1.274851591862789E-3    1.588417014861761E2
 7.274940000000000E9     1.262184755860330E-3    1.587649066579352E2
 7.274945000000000E9     1.265455564233596E-3    1.586864842329939E2
 7.274950000000000E9     1.258712493618919E-3    1.586928754925322E2
 7.274955000000000E9     1.258649279229563E-3    1.584565827972211E2
 7.274960000000000E9     1.254530572850865E-3    1.586395676762088E2
 7.274965000000000E9     1.252389431415980E-3    1.584167369200062E2
 7.274970000000000E9     1.248378723287519E-3    1.585175390374857E2
 7.274975000000000E9     1.248861594797022E-3    1.585024804183928E2
 7.274980000000000E9     1.240511889577525E-3    1.584298870473108E2
 7.274985000000000E9     1.240351171138871E-3    1.585541877000353E2
 7.274990000000000E9     1.236749076508151E-3    1.585830062850237E2
 7.274995000000000E9     1.235092635748432E-3    1.583713450887556E2
 7.275000000000000E9     1.234344880628674E-3    1.582654610205377E2
 7.275005000000000E9     1.229601086173796E-3    1.581916429621187E2
 7.275010000000000E9     1.225555023370732E-3    1.582282695132646E2
 7.275015000000000E9     1.224404269192222E-3    1.583372759465140E2
 7.275020000000000E9     1.221243341705864E-3    1.583213874695029E2
 7.275025000000000E9     1.219192056019462E-3    1.584465022745268E2
 7.275030000000000E9     1.215623869989392E-3    1.582349011069503E2
 7.275035000000000E9     1.215127598968023E-3    1.582711424001361E2
 7.275040000000000E9     1.205946417965441E-3    1.582027160645063E2
 7.275045000000000E9     1.205856658327462E-3    1.581588555903524E2
 7.275050000000000E9     1.200665077730373E-3    1.582438105091896E2
 7.275055000000000E9     1.203110319246617E-3    1.582456562322610E2
 7.275060000000000E9     1.198743542894884E-3    1.581075006076427E2
 7.275065000000000E9     1.197106541820755E-3    1.581921562580887E2
 7.275070000000000E9     1.193228064261046E-3    1.578527363531209E2
 7.275075000000000E9     1.189049889203307E-3    1.581071110496397E2
 7.275080000000000E9     1.183703444790430E-3    1.581458631546984E2
 7.275085000000000E9     1.187511208697627E-3    1.577830412823741E2
 7.275090000000000E9     1.185018421328166E-3    1.578661321870816E2
 7.275095000000000E9     1.181687844420774E-3    1.578847052564688E2
 7.275100000000000E9     1.173091962150869E-3    1.579667097577529E2
 7.275105000000000E9     1.177425334542746E-3    1.578328804983213E2
 7.275110000000000E9     1.173244362588088E-3    1.579298477214155E2
 7.275115000000000E9     1.169899241107940E-3    1.577769413408642E2
 7.275120000000000E9     1.171261098007608E-3    1.579289439096784E2
 7.275125000000000E9     1.162730065238878E-3    1.576681772969016E2
 7.275130000000000E9     1.164297090331345E-3    1.577480399392495E2
 7.275135000000000E9     1.160451011325065E-3    1.576961880739565E2
 7.275140000000000E9     1.157802504085587E-3    1.576020316290812E2
 7.275145000000000E9     1.155612879593959E-3    1.577002419538787E2
 7.275150000000000E9     1.155148540708731E-3    1.577819748179518E2
 7.275155000000000E9     1.151137603444632E-3    1.577335672906874E2
 7.275160000000000E9     1.145986628893044E-3    1.576818178576822E2
 7.275165000000000E9     1.145746838705585E-3    1.575180738655300E2
 7.275170000000000E9     1.144774679519132E-3    1.575170274766246E2
 7.275175000000000E9     1.138277228060709E-3    1.573151884353757E2
 7.275180000000000E9     1.139806654566185E-3    1.575801803424953E2
 7.275185000000000E9     1.134022452076537E-3    1.573721797948996E2
 7.275190000000000E9     1.136705516098017E-3    1.573580857923642E2
 7.275195000000000E9     1.132902529456515E-3    1.575295081463109E2
 7.275200000000000E9     1.125002976112514E-3    1.573519012036701E2
 7.275205000000000E9     1.126062462917691E-3    1.575882331263586E2
 7.275210000000000E9     1.124209695810640E-3    1.574915179417738E2
 7.275215000000000E9     1.122328713436537E-3    1.573361675802118E2
 7.275220000000000E9     1.118145104679129E-3    1.571739115328067E2
 7.275225000000000E9     1.115537827526082E-3    1.576372524631110E2
 7.275230000000000E9     1.114673893251938E-3    1.573636807347428E2
 7.275235000000000E9     1.110632623143060E-3    1.573324655944664E2
 7.275240000000000E9     1.114401272208008E-3    1.572814825835860E2
 7.275245000000000E9     1.104256827471571E-3    1.574219567039529E2
 7.275250000000000E9     1.105203031867702E-3    1.570779800769980E2
 7.275255000000000E9     1.104730823500748E-3    1.571104336319703E2
 7.275260000000000E9     1.098936909461409E-3    1.574009238552740E2
 7.275265000000000E9     1.100260933877233E-3    1.571587594877749E2
 7.275270000000000E9     1.092670353621580E-3    1.572858172329530E2
 7.275275000000000E9     1.094843822025868E-3    1.573122418930496E2
 7.275280000000000E9     1.096959620427184E-3    1.570746068290892E2
 7.275285000000000E9     1.087959257868571E-3    1.571614631306506E2
 7.275290000000000E9     1.090820025236340E-3    1.570220390523369E2
 7.275295000000000E9     1.085190689749145E-3    1.570250873588081E2
 7.275300000000000E9     1.082814429752846E-3    1.571970748678343E2
 7.275305000000000E9     1.083124293010120E-3    1.569285788864804E2
 7.275310000000000E9     1.079175053275970E-3    1.573007374782474E2
 7.275315000000000E9     1.075745148768807E-3    1.570859862525873E2
 7.275320000000000E9     1.075972412809989E-3    1.571124667985131E2
 7.275325000000000E9     1.071847037100467E-3    1.570076414989776E2
 7.275330000000000E9     1.067265220608845E-3    1.568202198703818E2
 7.275335000000000E9     1.068042719509294E-3    1.570734061169284E2
 7.275340000000000E9     1.066740339538306E-3    1.570425014003927E2
 7.275345000000000E9     1.064768764090629E-3    1.568020861964244E2
 7.275350000000000E9     1.059553865763065E-3    1.568678475086957E2
 7.275355000000000E9     1.062304002496669E-3    1.568287450590178E2
 7.275360000000000E9     1.063086277532497E-3    1.567868592345469E2
 7.275365000000000E9     1.052808526328255E-3    1.567063389504849E2
 7.275370000000000E9     1.055377442634796E-3    1.568567787444615E2
 7.275375000000000E9     1.054275389988812E-3    1.567608447801161E2
 7.275380000000000E9     1.044477403793118E-3    1.568981442852775E2
 7.275385000000000E9     1.047567412974323E-3    1.567467025999761E2
 7.275390000000000E9     1.046922339422428E-3    1.566788473872404E2
 7.275395000000000E9     1.044670510737550E-3    1.567635623206235E2
 7.275400000000000E9     1.042995857989152E-3    1.562175894430599E2
 7.275405000000000E9     1.031343736569051E-3    1.567898249781113E2
 7.275410000000000E9     1.036117599823318E-3    1.566378966103907E2
 7.275415000000000E9     1.035184665831445E-3    1.565751879985125E2
 7.275420000000000E9     1.028971206216414E-3    1.568784854662192E2
 7.275425000000000E9     1.029226645766229E-3    1.565606609082853E2
 7.275430000000000E9     1.026218461572634E-3    1.563714558521398E2
 7.275435000000000E9     1.025383644568665E-3    1.564589821624243E2
 7.275440000000000E9     1.023794550280719E-3    1.566946036751143E2
 7.275445000000000E9     1.022428936286143E-3    1.567336074044562E2
 7.275450000000000E9     1.022505193138593E-3    1.563127824281886E2
 7.275455000000000E9     1.018915661796254E-3    1.562571440127090E2
 7.275460000000000E9     1.017122344789192E-3    1.564336457845156E2
 7.275465000000000E9     1.013918944104415E-3    1.563523891961593E2
 7.275470000000000E9     1.012167849855018E-3    1.565391331239133E2
 7.275475000000000E9     1.014794107748478E-3    1.563007758080795E2
 7.275480000000000E9     1.008584207396958E-3    1.562874544608681E2
 7.275485000000000E9     1.011706544427500E-3    1.564529245463981E2
 7.275490000000000E9     1.006903964061091E-3    1.561913889912356E2
 7.275495000000000E9     1.006686908776560E-3    1.564201277455369E2
 7.275500000000000E9     9.973124239219889E-4    1.562015870975761E2
 7.275505000000000E9     1.004932022232115E-3    1.565043188272613E2
 7.275510000000000E9     9.997854899972572E-4    1.562944202964112E2
 7.275515000000000E9     9.962065136401980E-4    1.563157425504999E2
 7.275520000000000E9     9.943540399762665E-4    1.563826757290686E2
 7.275525000000000E9     9.910567282956646E-4    1.564317053217796E2
 7.275530000000000E9     9.877761091736769E-4    1.563064267005651E2
 7.275535000000000E9     9.900004118772020E-4    1.563422215384504E2
 7.275540000000000E9     9.874387559214170E-4    1.559898710056734E2
 7.275545000000000E9     9.836121247746941E-4    1.561029735238590E2
 7.275550000000000E9     9.840722174103179E-4    1.565969293032080E2
 7.275555000000000E9     9.829212508041744E-4    1.562945464543418E2
 7.275560000000000E9     9.791063830340975E-4    1.562243484818395E2
 7.275565000000000E9     9.792084671100031E-4    1.561701063724425E2
 7.275570000000000E9     9.761794042899933E-4    1.560342853884373E2
 7.275575000000000E9     9.703091664628790E-4    1.560132647033116E2
 7.275580000000000E9     9.774049390113254E-4    1.561225691465004E2
 7.275585000000000E9     9.701181358951005E-4    1.563034171690988E2
 7.275590000000000E9     9.692327637483939E-4    1.562168758248869E2
 7.275595000000000E9     9.651285475101584E-4    1.559965313978562E2
 7.275600000000000E9     9.652426630186138E-4    1.562638937667110E2
 7.275605000000000E9     9.636706273258123E-4    1.563110507116177E2
 7.275610000000000E9     9.599205505025594E-4    1.559632208546527E2
 7.275615000000000E9     9.608765222560828E-4    1.558647063003620E2
 7.275620000000000E9     9.608488965385112E-4    1.557221096935509E2
 7.275625000000000E9     9.542326229306023E-4    1.558286850524481E2
 7.275630000000000E9     9.517065485968258E-4    1.559911747690909E2
 7.275635000000000E9     9.577399354361468E-4    1.556288111936140E2
 7.275640000000000E9     9.507675632174831E-4    1.558980468624992E2
 7.275645000000000E9     9.440450809314685E-4    1.557014734279318E2
 7.275650000000000E9     9.471647690093356E-4    1.559188278581335E2
 7.275655000000000E9     9.495809392035987E-4    1.558134466478506E2
 7.275660000000000E9     9.465330578195899E-4    1.560632895647989E2
 7.275665000000000E9     9.414299611712923E-4    1.557792740691355E2
 7.275670000000000E9     9.420628791201196E-4    1.558068903974209E2
 7.275675000000000E9     9.382202555248757E-4    1.555030535022674E2
 7.275680000000000E9     9.376737457299883E-4    1.562033242988417E2
 7.275685000000000E9     9.372315368673872E-4    1.556888889185065E2
 7.275690000000000E9     9.393807043341311E-4    1.557988755733432E2
 7.275695000000000E9     9.379851604813372E-4    1.558724329876398E2
 7.275700000000000E9     9.328263378653134E-4    1.556753298045738E2
 7.275705000000000E9     9.365814865563636E-4    1.555861106324055E2
 7.275710000000000E9     9.273468604823446E-4    1.553987638732315E2
 7.275715000000000E9     9.210243880038870E-4    1.560116050836262E2
 7.275720000000000E9     9.259331462618788E-4    1.558871141885981E2
 7.275725000000000E9     9.244243837165694E-4    1.558707750692168E2
 7.275730000000000E9     9.276581427099698E-4    1.558042336355030E2
 7.275735000000000E9     9.209688063171558E-4    1.555979977131385E2
 7.275740000000000E9     9.160026526106113E-4    1.553315157236342E2
 7.275745000000000E9     9.127714399326993E-4    1.555585905197514E2
 7.275750000000000E9     9.119392741565389E-4    1.558277514719640E2
 7.275755000000000E9     9.151781923645946E-4    1.558659815625222E2
 7.275760000000000E9     9.078892761523806E-4    1.556972946885441E2
 7.275765000000000E9     9.099267093714380E-4    1.555755500909101E2
 7.275770000000000E9     8.995661648031302E-4    1.555645107513461E2
 7.275775000000000E9     9.059771078005615E-4    1.558274510507574E2
 7.275780000000000E9     9.049107336334567E-4    1.554641047968738E2
 7.275785000000000E9     9.009551528814362E-4    1.553118193510974E2
 7.275790000000000E9     8.976968628755804E-4    1.556946527014101E2
 7.275795000000000E9     9.017213293567391E-4    1.554275936674184E2
 7.275800000000000E9     9.004956559426731E-4    1.554166143655184E2
 7.275805000000000E9     9.025287081714425E-4    1.553572375920519E2
 7.275810000000000E9     8.950806581447090E-4    1.554680078473574E2
 7.275815000000000E9     8.931013068385891E-4    1.548582717299569E2
 7.275820000000000E9     8.934124768293822E-4    1.555186656358647E2
 7.275825000000000E9     8.937540093099230E-4    1.554776207677507E2
 7.275830000000000E9     8.903365871461143E-4    1.558036042616217E2
 7.275835000000000E9     8.879997932424220E-4    1.555853835879257E2
 7.275840000000000E9     8.893186695357846E-4    1.554319786089187E2
 7.275845000000000E9     8.892656587718059E-4    1.550106455476538E2
 7.275850000000000E9     8.835926075276468E-4    1.556742781808206E2
 7.275855000000000E9     8.846813521159034E-4    1.553210719951510E2
 7.275860000000000E9     8.840322625141283E-4    1.550739928517024E2
 7.275865000000000E9     8.823945105715232E-4    1.551777413320670E2
 7.275870000000000E9     8.735865840803298E-4    1.553635969414945E2
 7.275875000000000E9     8.758900762424031E-4    1.553564160953349E2
 7.275880000000000E9     8.736828204750586E-4    1.552194073402150E2
 7.275885000000000E9     8.746076614912692E-4    1.553191600563204E2
 7.275890000000000E9     8.725311811869338E-4    1.550834860631345E2
 7.275895000000000E9     8.727573590541635E-4    1.550996025162183E2
 7.275900000000000E9     8.708690315913612E-4    1.550278533364805E2
 7.275905000000000E9     8.696351166155142E-4    1.551951528000860E2
 7.275910000000000E9     8.670184319861530E-4    1.553494929516684E2
 7.275915000000000E9     8.651833347870962E-4    1.551087135174762E2
 7.275920000000000E9     8.605954341415351E-4    1.553331527499298E2
 7.275925000000000E9     8.624384836083110E-4    1.550831775062576E2
 7.275930000000000E9     8.578809061088222E-4    1.553171251788812E2
 7.275935000000000E9     8.630542112771463E-4    1.552510457075322E2
 7.275940000000000E9     8.591099086222428E-4    1.550485223674974E2
 7.275945000000000E9     8.599410602499155E-4    1.552294172681408E2
 7.275950000000000E9     8.596226859783754E-4    1.551538782406126E2
 7.275955000000000E9     8.545726669265693E-4    1.552608838683194E2
 7.275960000000000E9     8.579771195523743E-4    1.551186657739290E2
 7.275965000000000E9     8.518073841492225E-4    1.551075142517306E2
 7.275970000000000E9     8.480298921361472E-4    1.548031240839128E2
 7.275975000000000E9     8.431983590807739E-4    1.550766925135461E2
 7.275980000000000E9     8.493445897989332E-4    1.548208199764870E2
 7.275985000000000E9     8.418361794538302E-4    1.549472105049773E2
 7.275990000000000E9     8.462899368207661E-4    1.552545172543446E2
 7.275995000000000E9     8.439559400538375E-4    1.547636647468358E2
 7.276000000000000E9     8.469458990518793E-4    1.552066112174848E2
 7.276005000000000E9     8.443521270474147E-4    1.548986517911487E2
 7.276010000000000E9     8.384836890504364E-4    1.549835271973676E2
 7.276015000000000E9     8.392770994788474E-4    1.549304009063634E2
 7.276020000000000E9     8.349636892213005E-4    1.549780194043834E2
 7.276025000000000E9     8.370826356218790E-4    1.548206232427021E2
 7.276030000000000E9     8.369152818232725E-4    1.548049842512238E2
 7.276035000000000E9     8.333632805880046E-4    1.546836627905460E2
 7.276040000000000E9     8.307973838448113E-4    1.548105750175042E2
 7.276045000000000E9     8.321079240295562E-4    1.548346912561376E2
 7.276050000000000E9     8.276432544114128E-4    1.550096723499436E2
 7.276055000000000E9     8.292394007485053E-4    1.549850018886804E2
 7.276060000000000E9     8.234065734904361E-4    1.547733346775180E2
 7.276065000000000E9     8.305445789987149E-4    1.546855531875382E2
 7.276070000000000E9     8.247288138813015E-4    1.546264288853934E2
 7.276075000000000E9     8.187878623484156E-4    1.547642136038429E2
 7.276080000000000E9     8.217565716749590E-4    1.549160806165323E2
 7.276085000000000E9     8.234278929436154E-4    1.546824703988476E2
 7.276090000000000E9     8.171670047449152E-4    1.544267836141551E2
 7.276095000000000E9     8.171698201806728E-4    1.545072237157070E2
 7.276100000000000E9     8.228970197164162E-4    1.546278901108394E2
 7.276105000000000E9     8.169831854075984E-4    1.548563304867205E2
 7.276110000000000E9     8.167492088537776E-4    1.549957405172751E2
 7.276115000000000E9     8.147307254430946E-4    1.552640488318295E2
 7.276120000000000E9     8.080073505741727E-4    1.544951524803564E2
 7.276125000000000E9     8.113479431172880E-4    1.544241332932297E2
 7.276130000000000E9     8.078655238593453E-4    1.547729536017505E2
 7.276135000000000E9     8.067152279763395E-4    1.548805585952390E2
 7.276140000000000E9     8.048276639953792E-4    1.550456133257902E2
 7.276145000000000E9     8.064988891986881E-4    1.543811383139261E2
 7.276150000000000E9     8.002028857066701E-4    1.551187346693503E2
 7.276155000000000E9     7.983127393972895E-4    1.543608816572758E2
 7.276160000000000E9     7.983603226152337E-4    1.547734307652925E2
 7.276165000000000E9     8.019940960110967E-4    1.546580972580421E2
 7.276170000000000E9     7.965672834077141E-4    1.548004248011644E2
 7.276175000000000E9     7.945981277704196E-4    1.548707049563585E2
 7.276180000000000E9     7.929994914605650E-4    1.547248494437005E2
 7.276185000000000E9     7.986709311367570E-4    1.547980001481540E2
 7.276190000000000E9     7.944806645774681E-4    1.547800892170133E2
 7.276195000000000E9     7.944386986748727E-4    1.547569093644266E2
 7.276200000000000E9     7.903406526886808E-4    1.546397236764651E2
 7.276205000000000E9     7.894038567140281E-4    1.547467648652494E2
 7.276210000000000E9     7.926885533766441E-4    1.547611005019677E2
 7.276215000000000E9     7.941583623221319E-4    1.547933407127988E2
 7.276220000000000E9     7.919081727841244E-4    1.540842891479401E2
 7.276225000000000E9     7.824605723813858E-4    1.546416817665322E2
 7.276230000000000E9     7.930366769911587E-4    1.549245541048219E2
 7.276235000000000E9     7.854516345916499E-4    1.545040430324491E2
 7.276240000000000E9     7.827442664052216E-4    1.543459248767840E2
 7.276245000000000E9     7.838586592911605E-4    1.544637268828427E2
 7.276250000000000E9     7.773868187805447E-4    1.543572455753032E2
 7.276255000000000E9     7.793571718707837E-4    1.543855220130590E2
 7.276260000000000E9     7.776440820975399E-4    1.546785470628253E2
 7.276265000000000E9     7.705287890064265E-4    1.540692769512596E2
 7.276270000000000E9     7.770156660303445E-4    1.543224265252849E2
 7.276275000000000E9     7.769962481870758E-4    1.546044303637090E2
 7.276280000000000E9     7.716447676545381E-4    1.546421089637101E2
 7.276285000000000E9     7.685367623981995E-4    1.543752660753437E2
 7.276290000000000E9     7.717795365358682E-4    1.543301888064144E2
 7.276295000000000E9     7.720281958029398E-4    1.542496983508658E2
 7.276300000000000E9     7.693807575398677E-4    1.541281985711485E2
 7.276305000000000E9     7.664334360458529E-4    1.542395106394432E2
 7.276310000000000E9     7.670358657885765E-4    1.544701867910591E2
 7.276315000000000E9     7.645135738030134E-4    1.540249898234979E2
 7.276320000000000E9     7.641153670841671E-4    1.540554347065018E2
 7.276325000000000E9     7.603268749904245E-4    1.542415716282036E2
 7.276330000000000E9     7.592415121322646E-4    1.541246309989382E2
 7.276335000000000E9     7.613589292448346E-4    1.540424596299819E2
 7.276340000000000E9     7.593112793189933E-4    1.543354863457654E2
 7.276345000000000E9     7.604646622096697E-4    1.544910521663112E2
 7.276350000000000E9     7.526431237068315E-4    1.541438864650591E2
 7.276355000000000E9     7.575424723850182E-4    1.543735676862016E2
 7.276360000000000E9     7.546372033337725E-4    1.542940673799616E2
 7.276365000000000E9     7.543805717901193E-4    1.542102287292392E2
 7.276370000000000E9     7.480810438657982E-4    1.545251418653030E2
 7.276375000000000E9     7.488361224504324E-4    1.543113097184016E2
 7.276380000000000E9     7.536822988507532E-4    1.543058533671477E2
 7.276385000000000E9     7.515078452368148E-4    1.546561833800587E2
 7.276390000000000E9     7.457641808860344E-4    1.541777007636711E2
 7.276395000000000E9     7.495087582887954E-4    1.542464714029396E2
 7.276400000000000E9     7.445164936239350E-4    1.546526400535553E2
 7.276405000000000E9     7.447188461141350E-4    1.540460082157552E2
 7.276410000000000E9     7.480240393110275E-4    1.537462167185642E2
 7.276415000000000E9     7.408451993600333E-4    1.544683000967500E2
 7.276420000000000E9     7.396761879931640E-4    1.540965068638808E2
 7.276425000000000E9     7.425283815322666E-4    1.541013102153771E2
 7.276430000000000E9     7.337538637694535E-4    1.541381271702177E2
 7.276435000000000E9     7.372028821830232E-4    1.540987597592388E2
 7.276440000000000E9     7.377190589939206E-4    1.538098206834844E2
 7.276445000000000E9     7.396817107940991E-4    1.540501980493922E2
 7.276450000000000E9     7.361054768214817E-4    1.537769998977783E2
 7.276455000000000E9     7.364516305221147E-4    1.538277305378218E2
 7.276460000000000E9     7.346234838524554E-4    1.538085989735582E2
 7.276465000000000E9     7.292478465918120E-4    1.539431638275863E2
 7.276470000000000E9     7.334258937563745E-4    1.541463010119917E2
 7.276475000000000E9     7.316243418886392E-4    1.541177446820353E2
 7.276480000000000E9     7.316572918822773E-4    1.538356399714822E2
 7.276485000000000E9     7.351728880585257E-4    1.541149523317560E2
 7.276490000000000E9     7.313568392119372E-4    1.542105793042103E2
 7.276495000000000E9     7.270960662217281E-4    1.539894709468718E2
 7.276500000000000E9     7.295987016046030E-4    1.543196495728957E2
 7.276505000000000E9     7.275152248230653E-4    1.540328239091977E2
 7.276510000000000E9     7.235180798645732E-4    1.538144673896647E2
 7.276515000000000E9     7.282909655839037E-4    1.542444246913192E2
 7.276520000000000E9     7.239315145903777E-4    1.535578251930896E2
 7.276525000000000E9     7.242505003153719E-4    1.539002020962422E2
 7.276530000000000E9     7.169626175185106E-4    1.541010475715090E2
 7.276535000000000E9     7.259031825790994E-4    1.540151502045757E2
 7.276540000000000E9     7.216470087517169E-4    1.538524569666807E2
 7.276545000000000E9     7.138795669737707E-4    1.539169687128802E2
 7.276550000000000E9     7.172147991914064E-4    1.537934555589034E2
 7.276555000000000E9     7.093850140409592E-4    1.539274241494185E2
 7.276560000000000E9     7.152370503307202E-4    1.542082849876383E2
 7.276565000000000E9     7.119961576606650E-4    1.541655839814503E2
 7.276570000000000E9     7.125405508763410E-4    1.541479958742394E2
 7.276575000000000E9     7.088192664944694E-4    1.544254461408179E2
 7.276580000000000E9     7.083374195793231E-4    1.540049832609625E2
 7.276585000000000E9     7.095730637161859E-4    1.537165908868801E2
 7.276590000000000E9     7.090659706720946E-4    1.539824425154695E2
 7.276595000000000E9     7.056924017812790E-4    1.541716146224397E2
 7.276600000000000E9     7.106680416867215E-4    1.539355349633857E2
 7.276605000000000E9     7.105264103359963E-4    1.536344490104646E2
 7.276610000000000E9     7.064104219986802E-4    1.540357794250293E2
 7.276615000000000E9     6.987227473822139E-4    1.538553156226253E2
 7.276620000000000E9     7.053367364732682E-4    1.538121104544605E2
 7.276625000000000E9     7.024175146141302E-4    1.532937621070848E2
 7.276630000000000E9     7.013665280589111E-4    1.539430940341074E2
 7.276635000000000E9     6.973126170236714E-4    1.535752700335583E2
 7.276640000000000E9     6.954419758196690E-4    1.540237116125443E2
 7.276645000000000E9     7.005484673515915E-4    1.538287953732975E2
 7.276650000000000E9     6.960095933721238E-4    1.537019905045327E2
 7.276655000000000E9     6.908578224787379E-4    1.541130917637071E2
 7.276660000000000E9     6.973283327762795E-4    1.537100781567711E2
 7.276665000000000E9     6.920370346586178E-4    1.532285667888257E2
 7.276670000000000E9     6.965752826528202E-4    1.536483862309176E2
 7.276675000000000E9     6.962016132097443E-4    1.537419232422190E2
 7.276680000000000E9     6.933690294943606E-4    1.536433643284210E2
 7.276685000000000E9     6.903049758152570E-4    1.537304831113183E2
 7.276690000000000E9     6.866949988334189E-4    1.537873303537776E2
 7.276695000000000E9     6.865182448393530E-4    1.540840339870246E2
 7.276700000000000E9     6.915964620548339E-4    1.537014168231436E2
 7.276705000000000E9     6.871729083485650E-4    1.538237867586961E2
 7.276710000000000E9     6.879336576997634E-4    1.534379609221470E2
 7.276715000000000E9     6.861981372975792E-4    1.534260373394433E2
 7.276720000000000E9     6.864348996492626E-4    1.539068926768421E2
 7.276725000000000E9     6.787341937526068E-4    1.536777294078880E2
 7.276730000000000E9     6.815223224244260E-4    1.540196093408453E2
 7.276735000000000E9     6.864389355917596E-4    1.538543591025673E2
 7.276740000000000E9     6.730520325693086E-4    1.537157501399945E2
 7.276745000000000E9     6.790707418267433E-4    1.533657997189279E2
 7.276750000000000E9     6.802768695179783E-4    1.536799495798655E2
 7.276755000000000E9     6.781485235978601E-4    1.535034044136731E2
 7.276760000000000E9     6.767564294357480E-4    1.539863679026581E2
 7.276765000000000E9     6.795352148773266E-4    1.536741364878143E2
 7.276770000000000E9     6.734800802083757E-4    1.540937120430702E2
 7.276775000000000E9     6.675091105675963E-4    1.539057428679878E2
 7.276780000000000E9     6.723843682399028E-4    1.534920430155696E2
 7.276785000000000E9     6.753941266958227E-4    1.536155709422768E2
 7.276790000000000E9     6.738591130619068E-4    1.533158467244243E2
 7.276795000000000E9     6.774918530046243E-4    1.534267344513182E2
 7.276800000000000E9     6.660948803521485E-4    1.535039518523186E2
 7.276805000000000E9     6.760828450354429E-4    1.533782045530734E2
 7.276810000000000E9     6.651877161617472E-4    1.536441978531990E2
 7.276815000000000E9     6.679206325049127E-4    1.537183544728725E2
 7.276820000000000E9     6.688102695803313E-4    1.536348475185680E2
 7.276825000000000E9     6.701310789482060E-4    1.537576402175303E2
 7.276830000000000E9     6.655292449718026E-4    1.533899395347504E2
 7.276835000000000E9     6.637988548820383E-4    1.533949613432567E2
 7.276840000000000E9     6.636848235715658E-4    1.540423631252009E2
 7.276845000000000E9     6.639555077150518E-4    1.535236501945600E2
 7.276850000000000E9     6.682971069187215E-4    1.534821990582297E2
 7.276855000000000E9     6.578742187835090E-4    1.532053233148777E2
 7.276860000000000E9     6.588841494952869E-4    1.533100857449281E2
 7.276865000000000E9     6.513736915309764E-4    1.532950953181994E2
 7.276870000000000E9     6.599388370932587E-4    1.531031205085887E2
 7.276875000000000E9     6.613223553248610E-4    1.535231757728814E2
 7.276880000000000E9     6.600835399449513E-4    1.534512432439238E2
 7.276885000000000E9     6.581775497865077E-4    1.534413976750346E2
 7.276890000000000E9     6.545329475093603E-4    1.536137277558915E2
 7.276895000000000E9     6.548130534659377E-4    1.535939275441181E2
 7.276900000000000E9     6.524694857479015E-4    1.532329011925194E2
 7.276905000000000E9     6.520375396570874E-4    1.534976529072237E2
 7.276910000000000E9     6.526296243750934E-4    1.533410871795307E2
 7.276915000000000E9     6.507537401951354E-4    1.537750944031347E2
 7.276920000000000E9     6.494305067484261E-4    1.534155913056393E2
 7.276925000000000E9     6.492753906570893E-4    1.532377905873844E2
 7.276930000000000E9     6.504537027574113E-4    1.535339333510740E2
 7.276935000000000E9     6.413921266567567E-4    1.534263288274472E2
 7.276940000000000E9     6.522891737969278E-4    1.527914374905431E2
 7.276945000000000E9     6.496960230600383E-4    1.537410399467969E2
 7.276950000000000E9     6.458839234118962E-4    1.532898014566995E2
 7.276955000000000E9     6.471801838156335E-4    1.535862477621409E2
 7.276960000000000E9     6.447529170780552E-4    1.532776576276640E2
 7.276965000000000E9     6.422880532939128E-4    1.533198572383517E2
 7.276970000000000E9     6.424642959621896E-4    1.530375476747516E2
 7.276975000000000E9     6.404829678459102E-4    1.535606054772113E2
 7.276980000000000E9     6.385294755222871E-4    1.532534989844698E2
 7.276985000000000E9     6.373316241145013E-4    1.532535922505787E2
 7.276990000000000E9     6.397110694092403E-4    1.535197966609958E2
 7.276995000000000E9     6.395059519185123E-4    1.531519929829234E2
 7.277000000000000E9     6.367131813507276E-4    1.532085538028420E2
 7.277005000000000E9     6.352428232140174E-4    1.535969283098966E2
 7.277010000000000E9     6.377579641610560E-4    1.530241560886995E2
 7.277015000000000E9     6.360827195721428E-4    1.532475199091335E2
 7.277020000000000E9     6.349704007472750E-4    1.535376782356191E2
 7.277025000000000E9     6.364080187151431E-4    1.532750442511508E2
 7.277030000000000E9     6.306027054225754E-4    1.532757897261178E2
 7.277035000000000E9     6.301309834137337E-4    1.533085179710950E2
 7.277040000000000E9     6.270046377129355E-4    1.533687667124800E2
 7.277045000000000E9     6.280249759931645E-4    1.529915479952924E2
 7.277050000000000E9     6.306217616449613E-4    1.535350873441875E2
 7.277055000000000E9     6.329726047916920E-4    1.529715061353941E2
 7.277060000000000E9     6.255528502169375E-4    1.534081286192036E2
 7.277065000000000E9     6.284772532176922E-4    1.528523330119427E2
 7.277070000000000E9     6.274740482623121E-4    1.531999656685166E2
 7.277075000000000E9     6.298282666178152E-4    1.533294954358653E2
 7.277080000000000E9     6.260440045315501E-4    1.530498101255909E2
 7.277085000000000E9     6.258268926747097E-4    1.533082213758764E2
 7.277090000000000E9     6.261376469400777E-4    1.533364074211668E2
 7.277095000000000E9     6.228517922942003E-4    1.527775025904174E2
 7.277100000000000E9     6.179891612627615E-4    1.532724784512915E2
 7.277105000000000E9     6.186139818121054E-4    1.530236017971981E2
 7.277110000000000E9     6.127963432942985E-4    1.536328300955501E2
 7.277115000000000E9     6.165748304094740E-4    1.532952196047687E2
 7.277120000000000E9     6.212903435781905E-4    1.531094001287782E2
 7.277125000000000E9     6.110993197511353E-4    1.531648485861230E2
 7.277130000000000E9     6.160676245697853E-4    1.531559778399821E2
 7.277135000000000E9     6.097247476029075E-4    1.528570639597644E2
 7.277140000000000E9     6.161373030000039E-4    1.529277089839077E2
 7.277145000000000E9     6.204723934901230E-4    1.535489561990294E2
 7.277150000000000E9     6.171642235154010E-4    1.533857146768178E2
 7.277155000000000E9     6.188250067830924E-4    1.532302408117039E2
 7.277160000000000E9     6.199576964205652E-4    1.532965222463932E2
 7.277165000000000E9     6.116888726586891E-4    1.528477518948965E2
 7.277170000000000E9     6.124800773964521E-4    1.533278176262131E2
 7.277175000000000E9     6.091359766070278E-4    1.531513244331077E2
 7.277180000000000E9     6.062134367071322E-4    1.529206964852428E2
 7.277185000000000E9     6.101615417568591E-4    1.535206073682191E2
 7.277190000000000E9     6.104301908348311E-4    1.529119674368886E2
 7.277195000000000E9     6.085373473179251E-4    1.530837989446963E2
 7.277200000000000E9     6.103534468815984E-4    1.529885485142965E2
 7.277205000000000E9     6.082131974832979E-4    1.531804969643953E2
 7.277210000000000E9     6.100756819225269E-4    1.530206332482337E2
 7.277215000000000E9     6.047212594426193E-4    1.527103921475209E2
 7.277220000000000E9     6.057055582650747E-4    1.525649351559637E2
 7.277225000000000E9     5.997177117413198E-4    1.529927467428112E2
 7.277230000000000E9     6.042978849681655E-4    1.527452740403968E2
 7.277235000000000E9     5.988490485679868E-4    1.531649402095319E2
 7.277240000000000E9     5.988662768944026E-4    1.534829979225442E2
 7.277245000000000E9     6.005736868456271E-4    1.527895397978197E2
 7.277250000000000E9     5.960247597563563E-4    1.531438989835535E2
 7.277255000000000E9     6.016074941654351E-4    1.529834110347802E2
 7.277260000000000E9     6.006641826668930E-4    1.529493651028306E2
 7.277265000000000E9     5.964630058303384E-4    1.533823674370917E2
 7.277270000000000E9     5.936962124449512E-4    1.535183885267992E2
 7.277275000000000E9     5.993812912899027E-4    1.534607083383061E2
 7.277280000000000E9     5.924880168327697E-4    1.535200809019129E2
 7.277285000000000E9     5.963017927907619E-4    1.532597513142875E2
 7.277290000000000E9     5.952885586579447E-4    1.536331435250190E2
 7.277295000000000E9     5.879432128294325E-4    1.536012934887374E2
 7.277300000000000E9     5.955557831514029E-4    1.528077873168623E2
 7.277305000000000E9     5.937663112014659E-4    1.529901966578067E2
 7.277310000000000E9     5.937861961250148E-4    1.530493492668651E2
 7.277315000000000E9     5.897287360731316E-4    1.524303058715867E2
 7.277320000000000E9     5.916776593146889E-4    1.528428365885384E2
 7.277325000000000E9     5.875338080987350E-4    1.533686294920364E2
 7.277330000000000E9     5.877358800266430E-4    1.532557065044126E2
 7.277335000000000E9     5.920427277789089E-4    1.527635121933739E2
 7.277340000000000E9     5.863380379453226E-4    1.531541722743670E2
 7.277345000000000E9     5.838470538395626E-4    1.529906850983170E2
 7.277350000000000E9     5.879516284186674E-4    1.526546137989967E2
 7.277355000000000E9     5.865199318294467E-4    1.529895171899580E2
 7.277360000000000E9     5.820796756926777E-4    1.531958416020455E2
 7.277365000000000E9     5.801531250561699E-4    1.527413982400611E2
 7.277370000000000E9     5.854288596226211E-4    1.529413569731266E2
 7.277375000000000E9     5.823085229029275E-4    1.530185312514714E2
 7.277380000000000E9     5.831840821049470E-4    1.527367716266029E2
 7.277385000000000E9     5.796706057648589E-4    1.526900140991080E2
 7.277390000000000E9     5.799181616914056E-4    1.529565064873709E2
 7.277395000000000E9     5.807172449469208E-4    1.526541457044655E2
 7.277400000000000E9     5.811139715781662E-4    1.528508096467838E2
 7.277405000000000E9     5.799051338784843E-4    1.525846205146109E2
 7.277410000000000E9     5.764350634428702E-4    1.526474362358851E2
 7.277415000000000E9     5.843667524540519E-4    1.531277352318079E2
 7.277420000000000E9     5.794968998199816E-4    1.526968708997269E2
 7.277425000000000E9     5.816955208255587E-4    1.529975093948052E2
 7.277430000000000E9     5.740455710477429E-4    1.532089654349874E2
 7.277435000000000E9     5.755185114834896E-4    1.529323247629164E2
 7.277440000000000E9     5.705310059452813E-4    1.530231005859476E2
 7.277445000000000E9     5.758636452515343E-4    1.527512249875772E2
 7.277450000000000E9     5.752167557036569E-4    1.528924468955863E2
 7.277455000000000E9     5.691461625622406E-4    1.526643593279244E2
 7.277460000000000E9     5.715276718716131E-4    1.533528366430648E2
 7.277465000000000E9     5.728419175597539E-4    1.529619843736729E2
 7.277470000000000E9     5.719359384757780E-4    1.529269354421778E2
 7.277475000000000E9     5.696069726465391E-4    1.522766908546957E2
 7.277480000000000E9     5.697354392551452E-4    1.522712771150533E2
 7.277485000000000E9     5.737654426167444E-4    1.527262310285073E2
 7.277490000000000E9     5.656528339074011E-4    1.529782910075026E2
 7.277495000000000E9     5.702831446490294E-4    1.529191276845989E2
 7.277500000000000E9     5.698120346297252E-4    1.525329154686453E2
 7.277505000000000E9     5.664618562272856E-4    1.526064356702727E2
 7.277510000000000E9     5.682664974454623E-4    1.525940397939372E2
 7.277515000000000E9     5.627770847929949E-4    1.529205441504612E2
 7.277520000000000E9     5.675656421969584E-4    1.526628649554957E2
 7.277525000000000E9     5.612290898410302E-4    1.526746038195317E2
 7.277530000000000E9     5.649222146531573E-4    1.528970712991719E2
 7.277535000000000E9     5.618896942994957E-4    1.527528776739360E2
 7.277540000000000E9     5.670618956165189E-4    1.527868739827167E2
 7.277545000000000E9     5.686343755979275E-4    1.535969938014402E2
 7.277550000000000E9     5.635818561955688E-4    1.531794290357208E2
 7.277555000000000E9     5.626778118691995E-4    1.528383848379640E2
 7.277560000000000E9     5.597851865317562E-4    1.524006988102109E2
 7.277565000000000E9     5.618115988973630E-4    1.522668394040892E2
 7.277570000000000E9     5.563287490724687E-4    1.531322355520132E2
 7.277575000000000E9     5.614400267881514E-4    1.528035892873450E2
 7.277580000000000E9     5.557239781059111E-4    1.532024391925038E2
 7.277585000000000E9     5.569503503475713E-4    1.530062561489157E2
 7.277590000000000E9     5.566555835739088E-4    1.533281786109103E2
 7.277595000000000E9     5.540940436515996E-4    1.535598538179329E2
 7.277600000000000E9     5.581503217094038E-4    1.530051654549568E2
 7.277605000000000E9     5.545821830650547E-4    1.525228378950543E2
 7.277610000000000E9     5.547594213895477E-4    1.521290920297870E2
 7.277615000000000E9     5.546268144401198E-4    1.527140257800861E2
 7.277620000000000E9     5.547725672093367E-4    1.527209547767265E2
 7.277625000000000E9     5.474236583528912E-4    1.523020692288114E2
 7.277630000000000E9     5.527948475137189E-4    1.529924819070355E2
 7.277635000000000E9     5.566915518323560E-4    1.527673607514623E2
 7.277640000000000E9     5.560712563661679E-4    1.523114206560208E2
 7.277645000000000E9     5.504065502820026E-4    1.526521520696915E2
 7.277650000000000E9     5.476360422521675E-4    1.526956592392195E2
 7.277655000000000E9     5.463126130413581E-4    1.524897683480731E2
 7.277660000000000E9     5.463959849413920E-4    1.525557380060147E2
 7.277665000000000E9     5.451404679450961E-4    1.523833450708620E2
 7.277670000000000E9     5.476189460114417E-4    1.526979667473218E2
 7.277675000000000E9     5.467537814554393E-4    1.527995481645373E2
 7.277680000000000E9     5.432455603464011E-4    1.523555819646049E2
 7.277685000000000E9     5.460430907070210E-4    1.527025156102585E2
 7.277690000000000E9     5.487247664571472E-4    1.525599776614182E2
 7.277695000000000E9     5.382684352761978E-4    1.528982945208064E2
 7.277700000000000E9     5.415363553144082E-4    1.522288251457582E2
 7.277705000000000E9     5.460090007284647E-4    1.530551767816594E2
 7.277710000000000E9     5.445524683826058E-4    1.526786546158764E2
 7.277715000000000E9     5.464703133132152E-4    1.528035574646484E2
 7.277720000000000E9     5.437433689684147E-4    1.526073049394614E2
 7.277725000000000E9     5.376520616705138E-4    1.519201392547813E2
 7.277730000000000E9     5.398105882183069E-4    1.524356744132307E2
 7.277735000000000E9     5.361363299149178E-4    1.526298058258054E2
 7.277740000000000E9     5.369113072179419E-4    1.529480815648079E2
 7.277745000000000E9     5.356953377584983E-4    1.521242311091835E2
 7.277750000000000E9     5.379158879538583E-4    1.520826271005108E2
 7.277755000000000E9     5.367289392854431E-4    1.526004024636381E2
 7.277760000000000E9     5.351635245736065E-4    1.520198305583634E2
 7.277765000000000E9     5.367854044561398E-4    1.527945465220760E2
 7.277770000000000E9     5.355927791858711E-4    1.530490153454259E2
 7.277775000000000E9     5.367946294541763E-4    1.527962590737825E2
 7.277780000000000E9     5.340677399846639E-4    1.530042945362315E2
 7.277785000000000E9     5.294725249555638E-4    1.529725046575632E2
 7.277790000000000E9     5.299021420334431E-4    1.529618160020059E2
 7.277795000000000E9     5.312568793989899E-4    1.524192403518241E2
 7.277800000000000E9     5.323050814249187E-4    1.532328879396755E2
 7.277805000000000E9     5.306411275054358E-4    1.521814530001744E2
 7.277810000000000E9     5.321553380708936E-4    1.529604415895673E2
 7.277815000000000E9     5.258030669306037E-4    1.528422035774511E2
 7.277820000000000E9     5.303438342199010E-4    1.526481533243441E2
 7.277825000000000E9     5.278819838486500E-4    1.524523434816560E2
 7.277830000000000E9     5.328432153500642E-4    1.524837555181452E2
 7.277835000000000E9     5.300093249888431E-4    1.528909095651928E2
 7.277840000000000E9     5.227351779116367E-4    1.527348835845654E2
 7.277845000000000E9     5.292270877518007E-4    1.522400563140557E2
 7.277850000000000E9     5.260607223409868E-4    1.528058379167207E2
